      -----------------------------------------------------------      
     |                   =====================                   |     
     |                           x T B                           |     
     |                   =====================                   |     
     |                         S. Grimme                         |     
     |          Mulliken Center for Theoretical Chemistry        |     
     |                    University of Bonn                     |     
      -----------------------------------------------------------      

   * xtb version 6.7.1 (edcfbbe) compiled by 'conda@5dfe00f5fb80' on 2026-06-10

   xtb is free software: you can redistribute it and/or modify it under
   the terms of the GNU Lesser General Public License as published by
   the Free Software Foundation, either version 3 of the License, or
   (at your option) any later version.
   
   xtb is distributed in the hope that it will be useful,
   but WITHOUT ANY WARRANTY; without even the implied warranty of
   MERCHANTABILITY or FITNESS FOR A PARTICULAR PURPOSE.  See the
   GNU Lesser General Public License for more details.
   
   Cite this work as:
   * C. Bannwarth, E. Caldeweyher, S. Ehlert, A. Hansen, P. Pracht,
     J. Seibert, S. Spicher, S. Grimme, WIREs Comput. Mol. Sci., 2020, 11,
     e01493. DOI: 10.1002/wcms.1493
   
   for GFN2-xTB:
   * C. Bannwarth, S. Ehlert and S. Grimme., J. Chem. Theory Comput., 2019,
     15, 1652-1671. DOI: 10.1021/acs.jctc.8b01176
   for GFN1-xTB:
   * S. Grimme, C. Bannwarth, P. Shushkov, J. Chem. Theory Comput., 2017,
     13, 1989-2009. DOI: 10.1021/acs.jctc.7b00118
   for GFN0-xTB:
   * P. Pracht, E. Caldeweyher, S. Ehlert, S. Grimme, ChemRxiv, 2019, preprint.
     DOI: 10.26434/chemrxiv.8326202.v1
   for GFN-FF:
   * S. Spicher and S. Grimme, Angew. Chem. Int. Ed., 2020, 59, 15665-15673.
     DOI: 10.1002/anie.202004239
   
   for ALPB and GBSA implicit solvation:
   * S. Ehlert, M. Stahn, S. Spicher, S. Grimme, J. Chem. Theory Comput.,
     2021, 17, 4250-4261. DOI: 10.1021/acs.jctc.1c00471
   
   for ddCOSMO and CPCM-X implicit solvation:
   * M. Stahn, S. Ehlert, S. Grimme, J. Phys. Chem. A,
     2023, XX, XXXX-XXXX. DOI: 10.1021/acs.jpca.3c04382
   
   for DFT-D4:
   * E. Caldeweyher, C. Bannwarth and S. Grimme, J. Chem. Phys., 2017,
     147, 034112. DOI: 10.1063/1.4993215
   * E. Caldeweyher, S. Ehlert, A. Hansen, H. Neugebauer, S. Spicher,
     C. Bannwarth and S. Grimme, J. Chem. Phys., 2019, 150, 154122.
     DOI: 10.1063/1.5090222
   * E. Caldeweyher, J.-M. Mewes, S. Ehlert and S. Grimme, Phys. Chem. Chem. Phys.
     2020, 22, 8499-8512. DOI: 10.1039/D0CP00502A
   
   for sTDA-xTB:
   * S. Grimme and C. Bannwarth, J. Chem. Phys., 2016, 145, 054103.
     DOI: 10.1063/1.4959605
   
   in the mass-spec context:
   * V. Asgeirsson, C. Bauer and S. Grimme, Chem. Sci., 2017, 8, 4879.
     DOI: 10.1039/c7sc00601b
   * J. Koopman and S. Grimme, ACS Omega 2019, 4, 12, 15120-15133.
     DOI: 10.1021/acsomega.9b02011
   
   for metadynamics refer to:
   * S. Grimme, J. Chem. Theory Comput., 2019, 155, 2847-2862
     DOI: 10.1021/acs.jctc.9b00143
   
   for SPH calculations refer to:
   * S. Spicher and S. Grimme, J. Chem. Theory Comput., 2021, 17, 1701-1714
     DOI: 10.1021/acs.jctc.0c01306
   
   for ONIOM refer to:
   * C. Plett, A. Katbashev, S. Ehlert, S. Grimme, M. Bursch,
     Phys. Chem. Chem. Phys., 2023, 25, 17860-17868. DOI: 10.1039/D3CP02178E
   
   for DIPRO refer to:
   * J. Kohn, N. Gildemeister, S. Grimme, D. Fazzi, A. Hansen,
     J. Chem. Phys., 2023, just accepted.
   
   for PTB refer to:
   * S. Grimme, M. Mueller, A. Hansen, J. Chem. Phys., 2023, 158, 124111.
     DOI: 10.1063/5.0137838
   
   with help from (in alphabetical order)
   P. Atkinson, C. Bannwarth, F. Bohle, G. Brandenburg, E. Caldeweyher
   M. Checinski, S. Dohm, S. Ehlert, S. Ehrlich, I. Gerasimov, C. Hölzer
   A. Katbashev, J. Kohn, J. Koopman, C. Lavigne, S. Lehtola, F. März, M. Müller,
   F. Musil, H. Neugebauer, J. Pisarek, C. Plett, P. Pracht, F. Pultar,
   J. Seibert, P. Shushkov, S. Spicher, M. Stahn, M. Steiner, T. Strunk,
   J. Stückrath, T. Rose, and J. Unsleber
   
 * started run on 2026/08/25 at 07:09:58.343     
   ID    Z sym.   atoms
    1    1 H      1, 6, 10, 19, 20, 30-32, 42, 45-47, 52, 54
    2    6 C      2, 4, 5, 7, 8, 14, 16-18, 21, 22, 24-26, 29, 33-39, 41, 44,
                  48, 49, 53
    3    7 N      3, 9, 13, 27, 51
    4    8 O      11, 15, 23, 28, 43
    5    9 F      12, 40, 50

           -------------------------------------------------
          |                Calculation Setup                |
           -------------------------------------------------

          program call               : xtb 00097.sdf --opt loose --cycles 500
          coordinate file            : 00097.sdf
          omp threads                :                     1


           -------------------------------------------------
          |                 G F N 2 - x T B                 |
           -------------------------------------------------

        Reference                      10.1021/acs.jctc.8b01176
      * Hamiltonian:
        H0-scaling (s, p, d)           1.850000    2.230000    2.230000
        zeta-weighting                 0.500000
      * Dispersion:
        s8                             2.700000
        a1                             0.520000
        a2                             5.000000
        s9                             5.000000
      * Repulsion:
        kExp                           1.500000    1.000000
        rExp                           1.000000
      * Coulomb:
        alpha                          2.000000
        third order                    shell-resolved
        anisotropic                    true
        a3                             3.000000
        a5                             4.000000
        cn-shift                       1.200000
        cn-exp                         4.000000
        max-rad                        5.000000


          ...................................................
          :                      SETUP                      :
          :.................................................:
          :  # basis functions                 174          :
          :  # atomic orbitals                 174          :
          :  # shells                           94          :
          :  # electrons                       198          :
          :  max. iterations                   250          :
          :  Hamiltonian                  GFN2-xTB          :
          :  restarted?                      false          :
          :  GBSA solvation                  false          :
          :  PC potential                    false          :
          :  electronic temp.          300.0000000     K    :
          :  accuracy                    1.0000000          :
          :  -> integral cutoff          0.2500000E+02      :
          :  -> integral neglect         0.1000000E-07      :
          :  -> SCF convergence          0.1000000E-05 Eh   :
          :  -> wf. convergence          0.1000000E-03 e    :
          :  Broyden damping             0.4000000          :
          :  net charge                          0          :
          :  unpaired electrons                  0          :
          ...................................................

 iter      E             dE          RMSdq      gap      omega  full diag
   1   -114.3687367 -0.114369E+03  0.570E+00    1.93       0.0  T
   2   -114.8410093 -0.472273E+00  0.324E+00    0.69       1.0  T
   3   -114.8830924 -0.420831E-01  0.198E+00    0.39       1.0  T
   4   -114.4967274  0.386365E+00  0.200E+00    0.02       1.0  T
   5   -114.8764807 -0.379753E+00  0.107E+00    1.18       1.0  T
   6   -114.9265037 -0.500230E-01  0.407E-01    1.39       1.0  T
   7   -114.9286909 -0.218724E-02  0.312E-01    1.23       1.0  T
   8   -114.9317293 -0.303842E-02  0.220E-01    0.98       1.0  T
   9   -114.9327751 -0.104582E-02  0.178E-01    0.79       1.0  T
  10   -114.9334755 -0.700348E-03  0.128E-01    0.53       1.0  T
  11   -114.9347467 -0.127123E-02  0.253E-02    0.20       1.0  T
  12   -114.9161084  0.186383E-01  0.372E-01    0.09       1.0  T
  13   -114.9345539 -0.184455E-01  0.406E-02    0.17       1.0  T
  14   -114.9347122 -0.158326E-03  0.219E-02    0.21       1.0  T
  15   -114.9347107  0.151868E-05  0.218E-02    0.21       1.0  T
  16   -114.9347248 -0.140934E-04  0.188E-02    0.21       1.0  T
  17   -114.9347308 -0.594802E-05  0.175E-02    0.21       1.0  T
  18   -114.9347544 -0.236273E-04  0.110E-02    0.20       1.2  T
  19   -114.9347627 -0.830056E-05  0.739E-03    0.20       1.8  T
  20   -114.9347666 -0.387207E-05  0.492E-03    0.20       2.8  T
  21   -114.9347683 -0.177702E-05  0.319E-03    0.19       4.3  T
  22   -114.9347691 -0.774437E-06  0.203E-03    0.19       6.7  T
  23   -114.9347696 -0.442761E-06  0.794E-04    0.19      17.1  T
  24   -114.9347696 -0.781242E-07  0.140E-04    0.19      97.2  T

   *** convergence criteria satisfied after 24 iterations ***

         #    Occupation            Energy/Eh            Energy/eV
      -------------------------------------------------------------
         1        2.0000           -0.8919289             -24.2706
       ...           ...                  ...                  ...
        93        2.0000           -0.4395216             -11.9600
        94        2.0000           -0.4356761             -11.8554
        95        2.0000           -0.4298079             -11.6957
        96        2.0000           -0.4156164             -11.3095
        97        2.0000           -0.4133340             -11.2474
        98        2.0000           -0.3938833             -10.7181
        99        1.9524           -0.3867104             -10.5229 (HOMO)
       100        0.0476           -0.3796536             -10.3309 (LUMO)
       101                         -0.3490414              -9.4979
       102                         -0.3327456              -9.0545
       103                         -0.3148674              -8.5680
       104                         -0.2895752              -7.8797
       ...                                ...                  ...
       174                          0.6123621              16.6632
      -------------------------------------------------------------
                  HL-Gap            0.0070568 Eh            0.1920 eV
             Fermi-level           -0.3831817 Eh          -10.4269 eV

 SCC (total)                   0 d,  0 h,  0 min,  0.148 sec
 SCC setup                      ...        0 min,  0.000 sec (  0.332%)
 Dispersion                     ...        0 min,  0.001 sec (  0.665%)
 classical contributions        ...        0 min,  0.000 sec (  0.100%)
 integral evaluation            ...        0 min,  0.022 sec ( 14.744%)
 iterations                     ...        0 min,  0.090 sec ( 60.613%)
 molecular gradient             ...        0 min,  0.034 sec ( 23.302%)
 printout                       ...        0 min,  0.000 sec (  0.238%)

         :::::::::::::::::::::::::::::::::::::::::::::::::::::
         ::                     SUMMARY                     ::
         :::::::::::::::::::::::::::::::::::::::::::::::::::::
         :: total energy            -113.708937278552 Eh    ::
         :: gradient norm              0.348978480527 Eh/a0 ::
         :: HOMO-LUMO gap              0.192025820836 eV    ::
         ::.................................................::
         :: SCC energy              -114.934113650327 Eh    ::
         :: -> isotropic ES            0.181294521607 Eh    ::
         :: -> anisotropic ES          0.011725573527 Eh    ::
         :: -> anisotropic XC          0.028818953110 Eh    ::
         :: -> dispersion             -0.070827980850 Eh    ::
         :: repulsion energy           1.225176371775 Eh    ::
         :: add. restraining           0.000000000000 Eh    ::
         :: total charge               0.000000000001 e     ::
         :::::::::::::::::::::::::::::::::::::::::::::::::::::

      ----------------------------------------------------------- 
     |                   =====================                   |
     |                        A N C O P T                        |
     |                   =====================                   |
     |               Approximate Normal Coordinate               |
     |                Rational Function Optimizer                |
      ----------------------------------------------------------- 
      ----------------------------------------------------------- 
     |                   =====================                   |
     |                        A N C O P T                        |
     |                   =====================                   |
     |               Approximate Normal Coordinate               |
     |                Rational Function Optimizer                |
      ----------------------------------------------------------- 

          ...................................................
          :                      SETUP                      :
          :.................................................:
          :   optimization level             loose          :
          :   max. optcycles                   500          :
          :   ANC micro-cycles                  20          :
          :   degrees of freedom               156          :
          :.................................................:
          :   RF solver                   davidson          :
          :   write xtbopt.log                true          :
          :   linear?                        false          :
          :   energy convergence         0.5000000E-04 Eh   :
          :   grad. convergence          0.4000000E-02 Eh/α :
          :   maxmium RF displ.          1.0000000          :
          :   Hlow (freq-cutoff)         0.1000000E-01      :
          :   Hmax (freq-cutoff)         5.0000000          :
          :   S6 in model hess.         20.0000000          :
          ...................................................

generating ANC from exact Hessian ...
Using Lindh-Hessian (1995)
 Shifting diagonal of input Hessian by    9.8584544058962619E-003
 Lowest  eigenvalues of input Hessian
    0.000000    0.000000    0.000000    0.000000    0.000000    0.000000
    0.010000    0.010038    0.010105    0.010247    0.010463    0.010693
    0.011260    0.011668    0.011963    0.012722    0.013100    0.013757
 Highest eigenvalues
    1.997356    2.045030    2.080655    2.124846    2.240782    2.312074


........................................................................
.............................. CYCLE    1 ..............................
........................................................................

 iter      E             dE          RMSdq      gap      omega  full diag
   1   -114.9347696 -0.114935E+03  0.565E-05    0.19       0.0  T
   2   -114.9347696  0.106654E-07  0.289E-04    0.19      47.1  T
   3   -114.9347696 -0.110726E-07  0.461E-06    0.19    2949.7  T
     SCC iter.                  ...        0 min,  0.011 sec
     gradient                   ...        0 min,  0.032 sec
 * total energy  :  -113.7089373 Eh     change       -0.2501551E-08 Eh
   gradient norm :     0.3489743 Eh/α   predicted     0.0000000E+00 (-100.00%)
   displ. norm   :     0.5459441 α      lambda       -0.1372914E+00
   maximum displ.:     0.1661662 α      in ANC's #77, #92, #74, ...

........................................................................
.............................. CYCLE    2 ..............................
........................................................................

 iter      E             dE          RMSdq      gap      omega  full diag
   1   -115.0931457 -0.115093E+03  0.454E-01    0.61       0.0  T
   2   -115.0970252 -0.387948E-02  0.305E-01    0.26       1.0  T
   3   -115.0988459 -0.182069E-02  0.157E-01    0.26       1.0  T
   4   -115.0987340  0.111905E-03  0.921E-02    0.21       1.0  T
   5   -115.0988787 -0.144690E-03  0.521E-02    0.32       1.0  T
   6   -115.0990788 -0.200149E-03  0.152E-02    0.24       1.0  T
   7   -115.0990786  0.226258E-06  0.108E-02    0.25       1.3  T
   8   -115.0990776  0.100499E-05  0.854E-03    0.23       1.6  T
   9   -115.0990841 -0.647056E-05  0.334E-03    0.24       4.1  T
  10   -115.0990849 -0.838119E-06  0.951E-04    0.24      14.3  T
  11   -115.0990849 -0.972051E-08  0.505E-04    0.24      26.9  T
     SCC iter.                  ...        0 min,  0.042 sec
     gradient                   ...        0 min,  0.027 sec
 * total energy  :  -113.8229118 Eh     change       -0.1139745E+00 Eh
   gradient norm :     0.2271826 Eh/α   predicted    -0.8916663E-01 ( -21.77%)
   displ. norm   :     0.6349138 α      lambda       -0.1113357E+00
   maximum displ.:     0.1959567 α      in ANC's #32, #92, #41, ...

........................................................................
.............................. CYCLE    3 ..............................
........................................................................

 iter      E             dE          RMSdq      gap      omega  full diag
   1   -115.2294771 -0.115229E+03  0.674E-01    1.08       0.0  T
   2   -115.2441920 -0.147149E-01  0.417E-01    0.84       1.0  T
   3   -115.2469708 -0.277880E-02  0.209E-01    0.81       1.0  T
   4   -115.2465637  0.407043E-03  0.122E-01    0.71       1.0  T
   5   -115.2471364 -0.572673E-03  0.371E-02    0.70       1.0  T
   6   -115.2471644 -0.279678E-04  0.161E-02    0.70       1.0  T
   7   -115.2471695 -0.506534E-05  0.963E-03    0.70       1.4  T
   8   -115.2471712 -0.169948E-05  0.388E-03    0.70       3.5  T
   9   -115.2471715 -0.311294E-06  0.170E-03    0.70       8.0  T
  10   -115.2471716 -0.905205E-07  0.748E-04    0.70      18.2  T
  11   -115.2471716 -0.885932E-08  0.261E-04    0.70      52.1  T
     SCC iter.                  ...        0 min,  0.038 sec
     gradient                   ...        0 min,  0.028 sec
 * total energy  :  -113.8822563 Eh     change       -0.5934446E-01 Eh
   gradient norm :     0.1197661 Eh/α   predicted    -0.7810844E-01 (  31.62%)
   displ. norm   :     0.5766873 α      lambda       -0.3363019E-01
   maximum displ.:     0.2506440 α      in ANC's #21, #32, #20, ...

........................................................................
.............................. CYCLE    4 ..............................
........................................................................

 iter      E             dE          RMSdq      gap      omega  full diag
   1   -115.2881950 -0.115288E+03  0.321E-01    0.45       0.0  T
   2   -115.2900652 -0.187024E-02  0.212E-01    0.47       1.0  T
   3   -115.2906718 -0.606618E-03  0.109E-01    0.49       1.0  T
   4   -115.2906293  0.425560E-04  0.470E-02    0.50       1.0  T
   5   -115.2907097 -0.804736E-04  0.155E-02    0.51       1.0  T
   6   -115.2907194 -0.962843E-05  0.675E-03    0.51       2.0  T
   7   -115.2907194 -0.717196E-07  0.436E-03    0.50       3.1  T
   8   -115.2907200 -0.517467E-06  0.112E-03    0.50      12.2  T
   9   -115.2907200 -0.288289E-07  0.629E-04    0.50      21.6  T
  10   -115.2907200 -0.105347E-07  0.215E-04    0.50      63.3  T
     SCC iter.                  ...        0 min,  0.035 sec
     gradient                   ...        0 min,  0.034 sec
 * total energy  :  -113.9042702 Eh     change       -0.2201398E-01 Eh
   gradient norm :     0.0464729 Eh/α   predicted    -0.2240726E-01 (   1.79%)
   displ. norm   :     0.6467559 α      lambda       -0.1666911E-01
   maximum displ.:     0.3962553 α      in ANC's #21, #20, #16, ...

........................................................................
.............................. CYCLE    5 ..............................
........................................................................

 iter      E             dE          RMSdq      gap      omega  full diag
   1   -115.3382104 -0.115338E+03  0.215E-01    0.59       0.0  T
   2   -115.3383028 -0.924503E-04  0.132E-01    0.55       1.0  T
   3   -115.3382027  0.100166E-03  0.534E-02    0.55       1.0  T
   4   -115.3383330 -0.130327E-03  0.123E-02    0.54       1.1  T
   5   -115.3383409 -0.790676E-05  0.465E-03    0.54       2.9  T
   6   -115.3383413 -0.415294E-06  0.223E-03    0.54       6.1  T
   7   -115.3383414 -0.446284E-07  0.103E-03    0.54      13.2  T
   8   -115.3383414 -0.334488E-07  0.354E-04    0.54      38.4  T
   9   -115.3383414 -0.191217E-08  0.185E-04    0.54      73.7  T
     SCC iter.                  ...        0 min,  0.029 sec
     gradient                   ...        0 min,  0.035 sec
 * total energy  :  -113.9167419 Eh     change       -0.1247163E-01 Eh
   gradient norm :     0.0301171 Eh/α   predicted    -0.1182086E-01 (  -5.22%)
   displ. norm   :     0.6708197 α      lambda       -0.1029898E-01
   maximum displ.:     0.3876768 α      in ANC's #21, #20, #13, ...

........................................................................
.............................. CYCLE    6 ..............................
........................................................................

 iter      E             dE          RMSdq      gap      omega  full diag
   1   -115.3612701 -0.115361E+03  0.220E-01    0.60       0.0  T
   2   -115.3613527 -0.826337E-04  0.131E-01    0.58       1.0  T
   3   -115.3612066  0.146146E-03  0.688E-02    0.57       1.0  T
   4   -115.3614014 -0.194815E-03  0.116E-02    0.57       1.2  T
   5   -115.3614063 -0.491839E-05  0.507E-03    0.57       2.7  T
   6   -115.3614068 -0.555962E-06  0.274E-03    0.57       5.0  T
   7   -115.3614070 -0.109572E-06  0.111E-03    0.57      12.3  T
   8   -115.3614070 -0.408067E-07  0.399E-04    0.57      34.1  T
   9   -115.3614070 -0.361129E-08  0.182E-04    0.57      74.9  T
     SCC iter.                  ...        0 min,  0.029 sec
     gradient                   ...        0 min,  0.028 sec
 * total energy  :  -113.9240372 Eh     change       -0.7295360E-02 Eh
   gradient norm :     0.0303123 Eh/α   predicted    -0.7466793E-02 (   2.35%)
   displ. norm   :     0.6506880 α      lambda       -0.7617142E-02
   maximum displ.:     0.3800788 α      in ANC's #21, #13, #16, ...

........................................................................
.............................. CYCLE    7 ..............................
........................................................................

 iter      E             dE          RMSdq      gap      omega  full diag
   1   -115.3721568 -0.115372E+03  0.205E-01    0.59       0.0  T
   2   -115.3723851 -0.228290E-03  0.126E-01    0.58       1.0  T
   3   -115.3724157 -0.306004E-04  0.660E-02    0.58       1.0  T
   4   -115.3724668 -0.511142E-04  0.891E-03    0.58       1.5  T
   5   -115.3724699 -0.305109E-05  0.473E-03    0.57       2.9  T
   6   -115.3724704 -0.525806E-06  0.226E-03    0.58       6.0  T
   7   -115.3724704 -0.498629E-07  0.102E-03    0.58      13.3  T
   8   -115.3724705 -0.367369E-07  0.373E-04    0.58      36.5  T
   9   -115.3724705 -0.296197E-08  0.178E-04    0.58      76.5  T
     SCC iter.                  ...        0 min,  0.030 sec
     gradient                   ...        0 min,  0.028 sec
 * total energy  :  -113.9284770 Eh     change       -0.4439792E-02 Eh
   gradient norm :     0.0304293 Eh/α   predicted    -0.5421111E-02 (  22.10%)
   displ. norm   :     0.5249318 α      lambda       -0.4442886E-02
   maximum displ.:     0.2211360 α      in ANC's #14, #13, #21, ...

........................................................................
.............................. CYCLE    8 ..............................
........................................................................

 iter      E             dE          RMSdq      gap      omega  full diag
   1   -115.3750815 -0.115375E+03  0.157E-01    0.57       0.0  T
   2   -115.3751582 -0.767553E-04  0.946E-02    0.57       1.0  T
   3   -115.3751125  0.456911E-04  0.478E-02    0.57       1.0  T
   4   -115.3751948 -0.822257E-04  0.966E-03    0.57       1.4  T
   5   -115.3751985 -0.369719E-05  0.502E-03    0.57       2.7  T
   6   -115.3751988 -0.346263E-06  0.253E-03    0.57       5.4  T
   7   -115.3751989 -0.688834E-07  0.114E-03    0.57      12.0  T
   8   -115.3751989 -0.580178E-07  0.341E-04    0.57      39.9  T
   9   -115.3751989 -0.109310E-08  0.174E-04    0.57      78.2  T
     SCC iter.                  ...        0 min,  0.032 sec
     gradient                   ...        0 min,  0.030 sec
 * total energy  :  -113.9311900 Eh     change       -0.2712959E-02 Eh
   gradient norm :     0.0315782 Eh/α   predicted    -0.2833579E-02 (   4.45%)
   displ. norm   :     0.4871496 α      lambda       -0.3633168E-02
   maximum displ.:     0.1996570 α      in ANC's #3, #14, #13, ...

........................................................................
.............................. CYCLE    9 ..............................
........................................................................

 iter      E             dE          RMSdq      gap      omega  full diag
   1   -115.3837714 -0.115384E+03  0.184E-01    0.58       0.0  T
   2   -115.3840532 -0.281817E-03  0.107E-01    0.58       1.0  T
   3   -115.3840986 -0.453272E-04  0.597E-02    0.58       1.0  T
   4   -115.3841236 -0.250450E-04  0.127E-02    0.58       1.1  T
   5   -115.3841287 -0.507983E-05  0.557E-03    0.58       2.4  T
   6   -115.3841295 -0.853779E-06  0.257E-03    0.58       5.3  T
   7   -115.3841295 -0.221466E-08  0.117E-03    0.58      11.6  T
   8   -115.3841296 -0.434036E-07  0.440E-04    0.58      31.0  T
   9   -115.3841296 -0.665959E-08  0.206E-04    0.58      66.0  T
     SCC iter.                  ...        0 min,  0.029 sec
     gradient                   ...        0 min,  0.031 sec
 * total energy  :  -113.9325579 Eh     change       -0.1367944E-02 Eh
   gradient norm :     0.0285875 Eh/α   predicted    -0.2247688E-02 (  64.31%)
   displ. norm   :     0.3542361 α      lambda       -0.2588345E-02
   maximum displ.:     0.1300650 α      in ANC's #14, #3, #7, ...

........................................................................
.............................. CYCLE   10 ..............................
........................................................................

 iter      E             dE          RMSdq      gap      omega  full diag
   1   -115.3844790 -0.115384E+03  0.103E-01    0.60       0.0  T
   2   -115.3845409 -0.619080E-04  0.608E-02    0.59       1.0  T
   3   -115.3845363  0.465326E-05  0.320E-02    0.59       1.0  T
   4   -115.3845545 -0.182356E-04  0.949E-03    0.59       1.4  T
   5   -115.3845581 -0.362497E-05  0.428E-03    0.59       3.2  T
   6   -115.3845588 -0.677770E-06  0.191E-03    0.59       7.1  T
   7   -115.3845588 -0.484832E-08  0.901E-04    0.59      15.1  T
   8   -115.3845589 -0.339176E-07  0.288E-04    0.59      47.2  T
     SCC iter.                  ...        0 min,  0.026 sec
     gradient                   ...        0 min,  0.028 sec
 * total energy  :  -113.9340694 Eh     change       -0.1511512E-02 Eh
   gradient norm :     0.0251323 Eh/α   predicted    -0.1456571E-02 (  -3.63%)
   displ. norm   :     0.4037728 α      lambda       -0.2534945E-02
   maximum displ.:     0.1773187 α      in ANC's #3, #14, #7, ...

........................................................................
.............................. CYCLE   11 ..............................
........................................................................

 iter      E             dE          RMSdq      gap      omega  full diag
   1   -115.3859877 -0.115386E+03  0.160E-01    0.53       0.0  T
   2   -115.3862689 -0.281183E-03  0.938E-02    0.53       1.0  T
   3   -115.3863451 -0.762202E-04  0.539E-02    0.53       1.0  T
   4   -115.3863534 -0.831681E-05  0.174E-02    0.53       1.0  T
   5   -115.3863686 -0.152008E-04  0.570E-03    0.53       2.4  T
   6   -115.3863696 -0.100678E-05  0.255E-03    0.53       5.3  T
   7   -115.3863696 -0.184347E-07  0.147E-03    0.53       9.3  T
   8   -115.3863697 -0.628471E-07  0.378E-04    0.53      36.0  T
   9   -115.3863697 -0.366440E-08  0.186E-04    0.53      73.0  T
     SCC iter.                  ...        0 min,  0.033 sec
     gradient                   ...        0 min,  0.028 sec
 * total energy  :  -113.9345404 Eh     change       -0.4709761E-03 Eh
   gradient norm :     0.0299191 Eh/α   predicted    -0.1474116E-02 ( 212.99%)
   displ. norm   :     0.2545760 α      lambda       -0.2215315E-02
   maximum displ.:     0.0988433 α      in ANC's #3, #7, #13, ...

........................................................................
.............................. CYCLE   12 ..............................
........................................................................

 iter      E             dE          RMSdq      gap      omega  full diag
   1   -115.3883925 -0.115388E+03  0.882E-02    0.60       0.0  T
   2   -115.3884809 -0.883826E-04  0.542E-02    0.58       1.0  T
   3   -115.3884991 -0.181869E-04  0.298E-02    0.58       1.0  T
   4   -115.3885019 -0.285878E-05  0.798E-03    0.58       1.7  T
   5   -115.3885046 -0.266379E-05  0.319E-03    0.58       4.3  T
   6   -115.3885050 -0.396816E-06  0.144E-03    0.58       9.5  T
   7   -115.3885050 -0.688139E-08  0.775E-04    0.58      17.6  T
   8   -115.3885050 -0.169949E-07  0.250E-04    0.58      54.5  T
     SCC iter.                  ...        0 min,  0.026 sec
     gradient                   ...        0 min,  0.031 sec
 * total energy  :  -113.9359348 Eh     change       -0.1394423E-02 Eh
   gradient norm :     0.0163858 Eh/α   predicted    -0.1179445E-02 ( -15.42%)
   displ. norm   :     0.3670531 α      lambda       -0.1221808E-02
   maximum displ.:     0.1614742 α      in ANC's #3, #7, #1, ...

........................................................................
.............................. CYCLE   13 ..............................
........................................................................

 iter      E             dE          RMSdq      gap      omega  full diag
   1   -115.3864289 -0.115386E+03  0.991E-02    0.57       0.0  T
   2   -115.3864431 -0.142438E-04  0.572E-02    0.57       1.0  T
   3   -115.3864250  0.180696E-04  0.268E-02    0.57       1.0  T
   4   -115.3864497 -0.247210E-04  0.416E-03    0.57       3.3  T
   5   -115.3864503 -0.518975E-06  0.188E-03    0.57       7.2  T
   6   -115.3864503 -0.306734E-07  0.924E-04    0.57      14.7  T
   7   -115.3864503 -0.449094E-08  0.349E-04    0.57      39.0  T
     SCC iter.                  ...        0 min,  0.023 sec
     gradient                   ...        0 min,  0.028 sec
 * total energy  :  -113.9367034 Eh     change       -0.7685732E-03 Eh
   gradient norm :     0.0134547 Eh/α   predicted    -0.6932120E-03 (  -9.81%)
   displ. norm   :     0.4295819 α      lambda       -0.9455589E-03
   maximum displ.:     0.2086870 α      in ANC's #3, #7, #1, ...

........................................................................
.............................. CYCLE   14 ..............................
........................................................................

 iter      E             dE          RMSdq      gap      omega  full diag
   1   -115.3874282 -0.115387E+03  0.105E-01    0.60       0.0  T
   2   -115.3874543 -0.260116E-04  0.615E-02    0.60       1.0  T
   3   -115.3874374  0.168698E-04  0.260E-02    0.60       1.0  T
   4   -115.3874584 -0.210600E-04  0.683E-03    0.59       2.0  T
   5   -115.3874611 -0.268787E-05  0.274E-03    0.59       5.0  T
   6   -115.3874615 -0.353392E-06  0.117E-03    0.59      11.6  T
   7   -115.3874615  0.432237E-09  0.598E-04    0.59      22.8  T
   8   -115.3874615 -0.126568E-07  0.157E-04    0.59      86.5  T
     SCC iter.                  ...        0 min,  0.027 sec
     gradient                   ...        0 min,  0.040 sec
 * total energy  :  -113.9373565 Eh     change       -0.6530612E-03 Eh
   gradient norm :     0.0153260 Eh/α   predicted    -0.5600315E-03 ( -14.25%)
   displ. norm   :     0.5850054 α      lambda       -0.1163710E-02
   maximum displ.:     0.2679962 α      in ANC's #3, #7, #2, ...

........................................................................
.............................. CYCLE   15 ..............................
........................................................................

 iter      E             dE          RMSdq      gap      omega  full diag
   1   -115.3832165 -0.115383E+03  0.151E-01    0.59       0.0  T
   2   -115.3835173 -0.300792E-03  0.915E-02    0.58       1.0  T
   3   -115.3836024 -0.850984E-04  0.507E-02    0.59       1.0  T
   4   -115.3836083 -0.595375E-05  0.103E-02    0.59       1.3  T
   5   -115.3836110 -0.272580E-05  0.581E-03    0.59       2.3  T
   6   -115.3836130 -0.192165E-05  0.207E-03    0.59       6.6  T
   7   -115.3836130  0.178147E-08  0.969E-04    0.59      14.0  T
   8   -115.3836130 -0.334724E-07  0.336E-04    0.59      40.5  T
     SCC iter.                  ...        0 min,  0.026 sec
     gradient                   ...        0 min,  0.031 sec
 * total energy  :  -113.9376605 Eh     change       -0.3040464E-03 Eh
   gradient norm :     0.0291476 Eh/α   predicted    -0.7809928E-03 ( 156.87%)
   displ. norm   :     0.2501263 α      lambda       -0.1285122E-02
   maximum displ.:     0.1051387 α      in ANC's #3, #7, #1, ...

........................................................................
.............................. CYCLE   16 ..............................
........................................................................

 iter      E             dE          RMSdq      gap      omega  full diag
   1   -115.3885323 -0.115389E+03  0.755E-02    0.60       0.0  T
   2   -115.3886254 -0.931246E-04  0.436E-02    0.60       1.0  T
   3   -115.3886384 -0.129705E-04  0.245E-02    0.60       1.0  T
   4   -115.3886404 -0.204028E-05  0.771E-03    0.60       1.8  T
   5   -115.3886410 -0.582450E-06  0.246E-03    0.60       5.5  T
   6   -115.3886412 -0.149703E-06  0.141E-03    0.60       9.7  T
   7   -115.3886412 -0.307643E-07  0.408E-04    0.60      33.3  T
   8   -115.3886412 -0.142218E-08  0.206E-04    0.60      66.2  T
     SCC iter.                  ...        0 min,  0.026 sec
     gradient                   ...        0 min,  0.028 sec
 * total energy  :  -113.9383728 Eh     change       -0.7123308E-03 Eh
   gradient norm :     0.0144185 Eh/α   predicted    -0.6827673E-03 (  -4.15%)
   displ. norm   :     0.4412979 α      lambda       -0.1104380E-02
   maximum displ.:     0.2074007 α      in ANC's #3, #7, #2, ...

........................................................................
.............................. CYCLE   17 ..............................
........................................................................

 iter      E             dE          RMSdq      gap      omega  full diag
   1   -115.3815934 -0.115382E+03  0.125E-01    0.61       0.0  T
   2   -115.3817472 -0.153778E-03  0.787E-02    0.60       1.0  T
   3   -115.3817406  0.659899E-05  0.398E-02    0.60       1.0  T
   4   -115.3817643 -0.236983E-04  0.107E-02    0.60       1.3  T
   5   -115.3817696 -0.534866E-05  0.392E-03    0.60       3.5  T
   6   -115.3817704 -0.722124E-06  0.166E-03    0.60       8.2  T
   7   -115.3817704 -0.184668E-07  0.896E-04    0.60      15.2  T
   8   -115.3817704 -0.159909E-07  0.378E-04    0.60      36.0  T
     SCC iter.                  ...        0 min,  0.030 sec
     gradient                   ...        0 min,  0.032 sec
 * total energy  :  -113.9381490 Eh     change        0.2238586E-03 Eh
   gradient norm :     0.0438727 Eh/α   predicted    -0.6597265E-03 (-394.71%)
   displ. norm   :     0.1855754 α      lambda       -0.1746239E-02
   maximum displ.:     0.0953187 α      in ANC's #4, #2, #7, ...

........................................................................
.............................. CYCLE   18 ..............................
........................................................................

 iter      E             dE          RMSdq      gap      omega  full diag
   1   -115.3885250 -0.115389E+03  0.646E-02    0.62       0.0  T
   2   -115.3886172 -0.921180E-04  0.411E-02    0.62       1.0  T
   3   -115.3886241 -0.696826E-05  0.237E-02    0.62       1.0  T
   4   -115.3886252 -0.111772E-05  0.801E-03    0.62       1.7  T
   5   -115.3886269 -0.161149E-05  0.272E-03    0.62       5.0  T
   6   -115.3886272 -0.336876E-06  0.110E-03    0.62      12.4  T
   7   -115.3886272 -0.915895E-08  0.550E-04    0.62      24.7  T
   8   -115.3886272 -0.447162E-08  0.239E-04    0.62      57.1  T
     SCC iter.                  ...        0 min,  0.026 sec
     gradient                   ...        0 min,  0.030 sec
 * total energy  :  -113.9391319 Eh     change       -0.9829540E-03 Eh
   gradient norm :     0.0098037 Eh/α   predicted    -0.9031894E-03 (  -8.11%)
   displ. norm   :     0.3963807 α      lambda       -0.6626720E-03
   maximum displ.:     0.2119656 α      in ANC's #4, #3, #2, ...

........................................................................
.............................. CYCLE   19 ..............................
........................................................................

 iter      E             dE          RMSdq      gap      omega  full diag
   1   -115.3886067 -0.115389E+03  0.806E-02    0.63       0.0  T
   2   -115.3886372 -0.305969E-04  0.480E-02    0.63       1.0  T
   3   -115.3886372  0.898889E-08  0.235E-02    0.63       1.0  T
   4   -115.3886448 -0.751132E-05  0.376E-03    0.63       3.6  T
   5   -115.3886450 -0.297158E-06  0.212E-03    0.63       6.4  T
   6   -115.3886452 -0.130751E-06  0.996E-04    0.63      13.7  T
   7   -115.3886452 -0.131491E-07  0.386E-04    0.63      35.2  T
     SCC iter.                  ...        0 min,  0.023 sec
     gradient                   ...        0 min,  0.028 sec
 * total energy  :  -113.9395357 Eh     change       -0.4037914E-03 Eh
   gradient norm :     0.0111727 Eh/α   predicted    -0.3833946E-03 (  -5.05%)
   displ. norm   :     0.5425669 α      lambda       -0.6584846E-03
   maximum displ.:     0.2776650 α      in ANC's #4, #2, #3, ...

........................................................................
.............................. CYCLE   20 ..............................
........................................................................

 iter      E             dE          RMSdq      gap      omega  full diag
   1   -115.3876463 -0.115388E+03  0.101E-01    0.63       0.0  T
   2   -115.3876561 -0.973623E-05  0.596E-02    0.63       1.0  T
   3   -115.3876442  0.118667E-04  0.188E-02    0.63       1.0  T
   4   -115.3876599 -0.157045E-04  0.407E-03    0.63       3.3  T
   5   -115.3876603 -0.438510E-06  0.235E-03    0.63       5.8  T
   6   -115.3876605 -0.103766E-06  0.101E-03    0.63      13.4  T
   7   -115.3876605 -0.125268E-07  0.437E-04    0.63      31.1  T
   8   -115.3876605 -0.877846E-08  0.145E-04    0.63      94.1  T
     SCC iter.                  ...        0 min,  0.027 sec
     gradient                   ...        0 min,  0.036 sec
 * total energy  :  -113.9400704 Eh     change       -0.5346930E-03 Eh
   gradient norm :     0.0107560 Eh/α   predicted    -0.4261679E-03 ( -20.30%)
   displ. norm   :     0.5895264 α      lambda       -0.7341254E-03
   maximum displ.:     0.3414918 α      in ANC's #4, #2, #3, ...
 * RMSD in coord.:     0.8984283 α      energy gain  -0.2311331E+00 Eh

generating ANC from exact Hessian ...
Using Lindh-Hessian (1995)
 Shifting diagonal of input Hessian by    9.8536821770532166E-003
 Lowest  eigenvalues of input Hessian
    0.000000    0.000000    0.000000    0.000000    0.000000    0.000000
    0.010000    0.010176    0.010224    0.010318    0.010637    0.011079
    0.011937    0.012568    0.012974    0.014624    0.015139    0.015347
 Highest eigenvalues
    2.171646    2.183799    2.226527    2.255119    2.666752    2.674845


........................................................................
.............................. CYCLE   21 ..............................
........................................................................

 iter      E             dE          RMSdq      gap      omega  full diag
   1   -115.3887672 -0.115389E+03  0.114E-01    0.63       0.0  T
   2   -115.3887850 -0.177538E-04  0.664E-02    0.62       1.0  T
   3   -115.3887728  0.121961E-04  0.200E-02    0.62       1.0  T
   4   -115.3887897 -0.168816E-04  0.530E-03    0.62       2.6  T
   5   -115.3887905 -0.865234E-06  0.270E-03    0.62       5.0  T
   6   -115.3887907 -0.124807E-06  0.143E-03    0.62       9.5  T
   7   -115.3887907 -0.263527E-07  0.523E-04    0.62      26.0  T
   8   -115.3887907 -0.119286E-07  0.193E-04    0.62      70.7  T
     SCC iter.                  ...        0 min,  0.029 sec
     gradient                   ...        0 min,  0.030 sec
 * total energy  :  -113.9405828 Eh     change       -0.5123668E-03 Eh
   gradient norm :     0.0098997 Eh/α   predicted     0.0000000E+00 (-100.00%)
   displ. norm   :     0.0891737 α      lambda       -0.2017016E-03
   maximum displ.:     0.0627424 α      in ANC's #4, #3, #2, ...

........................................................................
.............................. CYCLE   22 ..............................
........................................................................

 iter      E             dE          RMSdq      gap      omega  full diag
   1   -115.3908953 -0.115391E+03  0.257E-02    0.63       0.0  T
   2   -115.3908982 -0.292584E-05  0.154E-02    0.62       1.0  T
   3   -115.3908981  0.193073E-06  0.741E-03    0.62       1.8  T
   4   -115.3908990 -0.901496E-06  0.139E-03    0.62       9.8  T
   5   -115.3908990 -0.666217E-07  0.677E-04    0.62      20.1  T
   6   -115.3908990 -0.167565E-07  0.303E-04    0.62      44.9  T
     SCC iter.                  ...        0 min,  0.020 sec
     gradient                   ...        0 min,  0.028 sec
 * total energy  :  -113.9407296 Eh     change       -0.1468220E-03 Eh
   gradient norm :     0.0051308 Eh/α   predicted    -0.1016545E-03 ( -30.76%)
   displ. norm   :     0.2079252 α      lambda       -0.2951207E-03
   maximum displ.:     0.1474593 α      in ANC's #4, #2, #3, ...

........................................................................
.............................. CYCLE   23 ..............................
........................................................................

 iter      E             dE          RMSdq      gap      omega  full diag
   1   -115.3936063 -0.115394E+03  0.501E-02    0.63       0.0  T
   2   -115.3936124 -0.609655E-05  0.297E-02    0.62       1.0  T
   3   -115.3936101  0.228675E-05  0.120E-02    0.62       1.1  T
   4   -115.3936138 -0.363390E-05  0.253E-03    0.62       5.4  T
   5   -115.3936140 -0.239641E-06  0.122E-03    0.62      11.2  T
   6   -115.3936141 -0.489440E-07  0.520E-04    0.62      26.1  T
   7   -115.3936141 -0.109070E-08  0.217E-04    0.62      62.7  T
     SCC iter.                  ...        0 min,  0.025 sec
     gradient                   ...        0 min,  0.028 sec
 * total energy  :  -113.9408972 Eh     change       -0.1675351E-03 Eh
   gradient norm :     0.0071564 Eh/α   predicted    -0.1539404E-03 (  -8.11%)
   displ. norm   :     0.1737515 α      lambda       -0.1658407E-03
   maximum displ.:     0.1246812 α      in ANC's #4, #2, #3, ...

........................................................................
.............................. CYCLE   24 ..............................
........................................................................

 iter      E             dE          RMSdq      gap      omega  full diag
   1   -115.3928760 -0.115393E+03  0.348E-02    0.62       0.0  T
   2   -115.3928774 -0.136794E-05  0.204E-02    0.62       1.0  T
   3   -115.3928766  0.721278E-06  0.593E-03    0.62       2.3  T
   4   -115.3928778 -0.116329E-05  0.125E-03    0.62      10.9  T
   5   -115.3928778 -0.115394E-07  0.744E-04    0.62      18.3  T
   6   -115.3928778 -0.868094E-08  0.266E-04    0.62      51.1  T
     SCC iter.                  ...        0 min,  0.019 sec
     gradient                   ...        0 min,  0.030 sec
 * total energy  :  -113.9410202 Eh     change       -0.1230558E-03 Eh
   gradient norm :     0.0079608 Eh/α   predicted    -0.8542512E-04 ( -30.58%)
   displ. norm   :     0.2181757 α      lambda       -0.1914395E-03
   maximum displ.:     0.1523667 α      in ANC's #4, #2, #3, ...

........................................................................
.............................. CYCLE   25 ..............................
........................................................................

 iter      E             dE          RMSdq      gap      omega  full diag
   1   -115.3908533 -0.115391E+03  0.400E-02    0.61       0.0  T
   2   -115.3908563 -0.295807E-05  0.238E-02    0.61       1.0  T
   3   -115.3908543  0.198829E-05  0.980E-03    0.61       1.4  T
   4   -115.3908573 -0.305227E-05  0.175E-03    0.61       7.8  T
   5   -115.3908574 -0.732152E-07  0.997E-04    0.61      13.6  T
   6   -115.3908574 -0.140580E-07  0.449E-04    0.61      30.3  T
     SCC iter.                  ...        0 min,  0.020 sec
     gradient                   ...        0 min,  0.028 sec
 * total energy  :  -113.9411765 Eh     change       -0.1563002E-03 Eh
   gradient norm :     0.0062661 Eh/α   predicted    -0.1002765E-03 ( -35.84%)
   displ. norm   :     0.2864667 α      lambda       -0.2135844E-03
   maximum displ.:     0.1966037 α      in ANC's #4, #2, #3, ...

........................................................................
.............................. CYCLE   26 ..............................
........................................................................

 iter      E             dE          RMSdq      gap      omega  full diag
   1   -115.3893718 -0.115389E+03  0.486E-02    0.60       0.0  T
   2   -115.3893761 -0.429747E-05  0.289E-02    0.60       1.0  T
   3   -115.3893738  0.232688E-05  0.119E-02    0.60       1.1  T
   4   -115.3893776 -0.383897E-05  0.210E-03    0.60       6.5  T
   5   -115.3893777 -0.116447E-06  0.124E-03    0.60      11.0  T
   6   -115.3893778 -0.259015E-07  0.544E-04    0.60      25.0  T
   7   -115.3893778 -0.370984E-08  0.236E-04    0.60      57.8  T
     SCC iter.                  ...        0 min,  0.028 sec
     gradient                   ...        0 min,  0.031 sec
 * total energy  :  -113.9413509 Eh     change       -0.1743769E-03 Eh
   gradient norm :     0.0061500 Eh/α   predicted    -0.1155612E-03 ( -33.73%)
   displ. norm   :     0.3181448 α      lambda       -0.1934065E-03
   maximum displ.:     0.2167611 α      in ANC's #4, #2, #3, ...

........................................................................
.............................. CYCLE   27 ..............................
........................................................................

 iter      E             dE          RMSdq      gap      omega  full diag
   1   -115.3890506 -0.115389E+03  0.506E-02    0.61       0.0  T
   2   -115.3890537 -0.310022E-05  0.299E-02    0.61       1.0  T
   3   -115.3890510  0.265784E-05  0.108E-02    0.60       1.3  T
   4   -115.3890549 -0.387059E-05  0.208E-03    0.60       6.5  T
   5   -115.3890550 -0.129816E-06  0.122E-03    0.60      11.2  T
   6   -115.3890550 -0.211623E-07  0.384E-04    0.60      35.4  T
   7   -115.3890550 -0.403344E-08  0.163E-04    0.60      83.3  T
     SCC iter.                  ...        0 min,  0.023 sec
     gradient                   ...        0 min,  0.032 sec
 * total energy  :  -113.9415147 Eh     change       -0.1638511E-03 Eh
   gradient norm :     0.0065821 Eh/α   predicted    -0.1064940E-03 ( -35.01%)
   displ. norm   :     0.3496444 α      lambda       -0.1969740E-03
   maximum displ.:     0.2370626 α      in ANC's #4, #2, #3, ...

........................................................................
.............................. CYCLE   28 ..............................
........................................................................

 iter      E             dE          RMSdq      gap      omega  full diag
   1   -115.3897192 -0.115390E+03  0.537E-02    0.61       0.0  T
   2   -115.3897218 -0.260621E-05  0.317E-02    0.61       1.0  T
   3   -115.3897186  0.319224E-05  0.102E-02    0.61       1.3  T
   4   -115.3897228 -0.421030E-05  0.221E-03    0.61       6.2  T
   5   -115.3897230 -0.180318E-06  0.120E-03    0.61      11.3  T
   6   -115.3897230 -0.215631E-07  0.369E-04    0.61      36.9  T
   7   -115.3897231 -0.190029E-08  0.168E-04    0.61      80.9  T
     SCC iter.                  ...        0 min,  0.023 sec
     gradient                   ...        0 min,  0.028 sec
 * total energy  :  -113.9416836 Eh     change       -0.1688145E-03 Eh
   gradient norm :     0.0057577 Eh/α   predicted    -0.1105293E-03 ( -34.53%)
   displ. norm   :     0.4021069 α      lambda       -0.2063478E-03
   maximum displ.:     0.2734028 α      in ANC's #4, #2, #3, ...

........................................................................
.............................. CYCLE   29 ..............................
........................................................................

 iter      E             dE          RMSdq      gap      omega  full diag
   1   -115.3908030 -0.115391E+03  0.614E-02    0.62       0.0  T
   2   -115.3908062 -0.325332E-05  0.362E-02    0.62       1.0  T
   3   -115.3908022  0.402990E-05  0.113E-02    0.62       1.2  T
   4   -115.3908074 -0.519615E-05  0.246E-03    0.62       5.5  T
   5   -115.3908076 -0.243178E-06  0.129E-03    0.62      10.6  T
   6   -115.3908077 -0.278794E-07  0.453E-04    0.62      30.0  T
   7   -115.3908077 -0.141399E-08  0.194E-04    0.62      70.1  T
     SCC iter.                  ...        0 min,  0.027 sec
     gradient                   ...        0 min,  0.035 sec
 * total energy  :  -113.9418568 Eh     change       -0.1732447E-03 Eh
   gradient norm :     0.0047369 Eh/α   predicted    -0.1198578E-03 ( -30.82%)
   displ. norm   :     0.4351433 α      lambda       -0.1890189E-03
   maximum displ.:     0.2974067 α      in ANC's #4, #2, #6, ...

........................................................................
.............................. CYCLE   30 ..............................
........................................................................

 iter      E             dE          RMSdq      gap      omega  full diag
   1   -115.3914594 -0.115391E+03  0.674E-02    0.63       0.0  T
   2   -115.3914625 -0.317343E-05  0.397E-02    0.63       1.0  T
   3   -115.3914586  0.396923E-05  0.111E-02    0.63       1.2  T
   4   -115.3914637 -0.514800E-05  0.244E-03    0.63       5.6  T
   5   -115.3914639 -0.223958E-06  0.132E-03    0.63      10.3  T
   6   -115.3914640 -0.267469E-07  0.373E-04    0.63      36.5  T
   7   -115.3914640 -0.158862E-08  0.172E-04    0.63      79.2  T
     SCC iter.                  ...        0 min,  0.023 sec
     gradient                   ...        0 min,  0.032 sec
 * total energy  :  -113.9420118 Eh     change       -0.1550520E-03 Eh
   gradient norm :     0.0043525 Eh/α   predicted    -0.1124076E-03 ( -27.50%)
   displ. norm   :     0.4318320 α      lambda       -0.1523092E-03
   maximum displ.:     0.2978095 α      in ANC's #4, #2, #6, ...

........................................................................
.............................. CYCLE   31 ..............................
........................................................................

 iter      E             dE          RMSdq      gap      omega  full diag
   1   -115.3917349 -0.115392E+03  0.686E-02    0.63       0.0  T
   2   -115.3917379 -0.295738E-05  0.404E-02    0.63       1.0  T
   3   -115.3917347  0.312164E-05  0.103E-02    0.63       1.3  T
   4   -115.3917390 -0.421348E-05  0.221E-03    0.63       6.2  T
   5   -115.3917391 -0.144507E-06  0.129E-03    0.63      10.6  T
   6   -115.3917391 -0.321936E-07  0.315E-04    0.63      43.2  T
   7   -115.3917391 -0.122266E-08  0.149E-04    0.63      91.5  T
     SCC iter.                  ...        0 min,  0.023 sec
     gradient                   ...        0 min,  0.028 sec
 * total energy  :  -113.9421311 Eh     change       -0.1192683E-03 Eh
   gradient norm :     0.0038094 Eh/α   predicted    -0.9036142E-04 ( -24.24%)
   displ. norm   :     0.3785456 α      lambda       -0.9742043E-04
   maximum displ.:     0.2641221 α      in ANC's #4, #2, #6, ...

........................................................................
.............................. CYCLE   32 ..............................
........................................................................

 iter      E             dE          RMSdq      gap      omega  full diag
   1   -115.3916606 -0.115392E+03  0.622E-02    0.63       0.0  T
   2   -115.3916631 -0.252258E-05  0.366E-02    0.63       1.0  T
   3   -115.3916607  0.239479E-05  0.949E-03    0.63       1.4  T
   4   -115.3916641 -0.332594E-05  0.182E-03    0.63       7.5  T
   5   -115.3916641 -0.682840E-07  0.112E-03    0.63      12.1  T
   6   -115.3916642 -0.267927E-07  0.276E-04    0.63      49.2  T
   7   -115.3916642 -0.168079E-08  0.128E-04    0.63     106.6  T
     SCC iter.                  ...        0 min,  0.026 sec
     gradient                   ...        0 min,  0.029 sec
 * total energy  :  -113.9422024 Eh     change       -0.7124514E-04 Eh
   gradient norm :     0.0027936 Eh/α   predicted    -0.5569509E-04 ( -21.83%)
   displ. norm   :     0.2647003 α      lambda       -0.4820407E-04
   maximum displ.:     0.1883918 α      in ANC's #4, #2, #6, ...

........................................................................
.............................. CYCLE   33 ..............................
........................................................................

 iter      E             dE          RMSdq      gap      omega  full diag
   1   -115.3921581 -0.115392E+03  0.459E-02    0.63       0.0  T
   2   -115.3921598 -0.173504E-05  0.270E-02    0.63       1.0  T
   3   -115.3921584  0.140648E-05  0.774E-03    0.63       1.8  T
   4   -115.3921604 -0.199276E-05  0.129E-03    0.63      10.6  T
   5   -115.3921605 -0.253580E-07  0.803E-04    0.63      16.9  T
   6   -115.3921605 -0.147485E-07  0.280E-04    0.63      48.7  T
     SCC iter.                  ...        0 min,  0.020 sec
     gradient                   ...        0 min,  0.028 sec
 * total energy  :  -113.9422355 Eh     change       -0.3313624E-04 Eh
   gradient norm :     0.0019145 Eh/α   predicted    -0.2579236E-04 ( -22.16%)
   displ. norm   :     0.2527731 α      lambda       -0.2221421E-04
   maximum displ.:     0.1825399 α      in ANC's #4, #2, #1, ...

   *** GEOMETRY OPTIMIZATION CONVERGED AFTER 33 ITERATIONS ***

------------------------------------------------------------------------
 total energy gain   :        -0.2332982 Eh     -146.3968 kcal/mol
 total RMSD          :         1.2429390 a0        0.6577 Å
 total power (kW/mol):       -18.5613451 (step) -272.8293 (real)
------------------------------------------------------------------------

 ANCopt (total)                0 d,  0 h,  0 min,  2.245 sec
 optimizer setup                ...        0 min,  0.000 sec (  0.005%)
 model hessian                  ...        0 min,  0.015 sec (  0.680%)
 ANC generation                 ...        0 min,  0.003 sec (  0.138%)
 coordinate transformation      ...        0 min,  0.001 sec (  0.037%)
 single point calculation       ...        0 min,  2.212 sec ( 98.543%)
 optimization log               ...        0 min,  0.007 sec (  0.322%)
 hessian update                 ...        0 min,  0.001 sec (  0.035%)
 rational function              ...        0 min,  0.004 sec (  0.189%)

================
 final structure:
================
 xtb: 6.7.1 (edcfbbe)
          08252607103D

 54 59  0     0  0            999 V2000
   -3.1347   -5.6202    0.9685 H   0  0  0  0  0  0  0  0  0  0  0  0
    0.4709    1.0639   -0.6582 C   0  0  0  0  0  0  0  0  0  0  0  0
   -2.0509    6.3417   -1.7272 N   0  0  0  0  0  0  0  0  0  0  0  0
   -0.7087   -2.2483    0.0590 C   0  0  0  0  0  0  0  0  0  0  0  0
    3.7411   -2.0952   -0.6104 C   0  0  0  0  0  0  0  0  0  0  0  0
   -0.5165    5.1268    2.4379 H   0  0  0  0  0  0  0  0  0  0  0  0
    0.6306   -0.3226   -0.7609 C   0  0  0  0  0  0  0  0  0  0  0  0
   -0.7771    4.8189    1.4368 C   0  0  0  0  0  0  0  0  0  0  0  0
   -0.1351   -2.3746    1.3008 N   0  0  0  0  0  0  0  0  0  0  0  0
    3.7247    2.0775   -0.3498 H   0  0  0  0  0  0  0  0  0  0  0  0
   -2.5315    5.9246   -2.7507 O   0  0  0  0  0  0  0  0  0  0  0  0
    3.9970   -4.2803    0.2163 F   0  0  0  0  0  0  0  0  0  0  0  0
   -1.1809   -5.0069    3.6432 N   0  0  0  0  0  0  0  0  0  0  0  0
    1.9377   -0.8085   -0.6695 C   0  0  0  0  0  0  0  0  0  0  0  0
   -2.5526    7.4734    1.2760 O   0  0  0  0  0  0  0  0  0  0  0  0
   -2.3895   -3.3469   -1.3037 C   0  0  0  0  0  0  0  0  0  0  0  0
    1.6015    1.9026   -0.5190 C   0  0  0  0  0  0  0  0  0  0  0  0
    4.2058   -0.8155   -0.4759 C   0  0  0  0  0  0  0  0  0  0  0  0
   -0.2423    2.7735    1.7449 H   0  0  0  0  0  0  0  0  0  0  0  0
    0.2254   -3.5448    3.9049 H   0  0  0  0  0  0  0  0  0  0  0  0
   -2.0876   -5.5671    2.8497 C   0  0  0  0  0  0  0  0  0  0  0  0
   -1.1782   -1.4189   -2.1160 C   0  0  0  0  0  0  0  0  0  0  0  0
   -1.8784    7.5038   -1.4436 O   0  0  0  0  0  0  0  0  0  0  0  0
   -0.9703    3.1004   -0.2446 C   0  0  0  0  0  0  0  0  0  0  0  0
   -1.6790   -3.2626   -0.1131 C   0  0  0  0  0  0  0  0  0  0  0  0
    4.5001   -3.3765   -0.6467 C   0  0  0  0  0  0  0  0  0  0  0  0
    2.3775   -2.0993   -0.7232 N   0  0  0  0  0  0  0  0  0  0  0  0
   -1.8940    1.0663   -0.9647 O   0  0  0  0  0  0  0  0  0  0  0  0
   -0.8801    1.6547   -0.6667 C   0  0  0  0  0  0  0  0  0  0  0  0
    5.2289   -0.5203   -0.3640 H   0  0  0  0  0  0  0  0  0  0  0  0
   -3.1280   -4.1203   -1.4471 H   0  0  0  0  0  0  0  0  0  0  0  0
    1.4484    2.9700   -0.4814 H   0  0  0  0  0  0  0  0  0  0  0  0
   -0.6255    3.4993    1.0438 C   0  0  0  0  0  0  0  0  0  0  0  0
   -1.6051    5.3615   -0.7512 C   0  0  0  0  0  0  0  0  0  0  0  0
   -2.1274   -2.4199   -2.2936 C   0  0  0  0  0  0  0  0  0  0  0  0
    2.8801    1.4150   -0.4495 C   0  0  0  0  0  0  0  0  0  0  0  0
   -0.4524   -1.3073   -0.9382 C   0  0  0  0  0  0  0  0  0  0  0  0
   -1.6827   -4.0263    1.1043 C   0  0  0  0  0  0  0  0  0  0  0  0
    3.0670    0.0301   -0.5141 C   0  0  0  0  0  0  0  0  0  0  0  0
    5.7882   -3.2130   -0.3428 F   0  0  0  0  0  0  0  0  0  0  0  0
   -0.7178   -3.4333    1.9543 C   0  0  0  0  0  0  0  0  0  0  0  0
   -2.5982   -6.4191    3.2772 H   0  0  0  0  0  0  0  0  0  0  0  0
   -0.4149    7.7594    1.1973 O   0  0  0  0  0  0  0  0  0  0  0  0
   -1.2612    5.7574    0.5381 C   0  0  0  0  0  0  0  0  0  0  0  0
   -1.7648    3.7500   -2.1383 H   0  0  0  0  0  0  0  0  0  0  0  0
    1.8010   -2.9136   -0.8651 H   0  0  0  0  0  0  0  0  0  0  0  0
   -2.6658   -2.4670   -3.2274 H   0  0  0  0  0  0  0  0  0  0  0  0
   -2.3878   -5.1287    1.5715 C   0  0  0  0  0  0  0  0  0  0  0  0
   -1.4781    4.0344   -1.1365 C   0  0  0  0  0  0  0  0  0  0  0  0
    4.4523   -3.9633   -1.8592 F   0  0  0  0  0  0  0  0  0  0  0  0
   -1.4274    7.1360    1.0179 N   0  0  0  0  0  0  0  0  0  0  0  0
    0.5404   -1.7467    1.7012 H   0  0  0  0  0  0  0  0  0  0  0  0
   -0.5006   -3.9616    3.2191 C   0  0  0  0  0  0  0  0  0  0  0  0
   -0.9933   -0.7123   -2.9101 H   0  0  0  0  0  0  0  0  0  0  0  0
  1 48  1  0  0  0  0
  2  7  4  0  0  0  0
  2 17  4  0  0  0  0
  2 29  1  0  0  0  0
  3 11  2  0  0  0  0
  3 23  1  0  0  0  0
  3 34  1  0  0  0  0
  4  9  4  0  0  0  0
  4 25  4  0  0  0  0
  4 37  4  0  0  0  0
  5 18  4  0  0  0  0
  5 26  1  0  0  0  0
  5 27  4  0  0  0  0
  6  8  1  0  0  0  0
  7 14  4  0  0  0  0
  7 37  1  0  0  0  0
  8 33  4  0  0  0  0
  8 44  4  0  0  0  0
  9 41  4  0  0  0  0
  9 52  1  0  0  0  0
 10 36  1  0  0  0  0
 12 26  1  0  0  0  0
 13 21  4  0  0  0  0
 13 53  4  0  0  0  0
 14 27  4  0  0  0  0
 14 39  4  0  0  0  0
 15 51  2  0  0  0  0
 16 25  4  0  0  0  0
 16 31  1  0  0  0  0
 16 35  4  0  0  0  0
 17 32  1  0  0  0  0
 17 36  4  0  0  0  0
 18 30  1  0  0  0  0
 18 39  4  0  0  0  0
 19 33  1  0  0  0  0
 20 53  1  0  0  0  0
 21 42  1  0  0  0  0
 21 48  4  0  0  0  0
 22 35  4  0  0  0  0
 22 37  4  0  0  0  0
 22 54  1  0  0  0  0
 24 29  1  0  0  0  0
 24 33  4  0  0  0  0
 24 49  4  0  0  0  0
 25 38  4  0  0  0  0
 26 40  1  0  0  0  0
 26 50  1  0  0  0  0
 27 46  1  0  0  0  0
 28 29  2  0  0  0  0
 34 44  4  0  0  0  0
 34 49  4  0  0  0  0
 35 47  1  0  0  0  0
 36 39  4  0  0  0  0
 38 41  4  0  0  0  0
 38 48  4  0  0  0  0
 41 53  4  0  0  0  0
 43 51  1  0  0  0  0
 44 51  1  0  0  0  0
 45 49  1  0  0  0  0
M  CHG  1   3   1
M  CHG  1  23  -1
M  CHG  1  43  -1
M  CHG  1  51   1
M  END
$$$$

 Bond Distances (Angstroems)
 ---------------------------
H1-C48=1.0784        C2-C7=1.3994         C2-C17=1.4146        C2-C29=1.4746        N3-O11=1.2052        N3-O23=1.2086        
N3-C34=1.4533        C4-N9=1.3738         C4-C25=1.4142        C4-C37=1.3948        C5-C18=1.3681        C5-C26=1.4897        
C5-N27=1.3683        H6-C8=1.0793         C7-C2=1.3994         C7-C14=1.3975        C7-C37=1.4745        C8-H6=1.0793         
C8-C33=1.3851        C8-C44=1.3867        N9-C4=1.3738         N9-C41=1.3738        N9-H52=1.0055        H10-C36=1.0780       
O11-N3=1.2052        F12-C26=1.3471       N13-C21=1.3288       N13-C53=1.3174       C14-C7=1.3975        C14-N27=1.3648       
C14-C39=1.4151       O15-N51=1.2028       C16-C25=1.3890       C16-H31=1.0789       C16-C35=1.3813       C17-C2=1.4146        
C17-H32=1.0790       C17-C36=1.3703       C18-C5=1.3681        C18-H30=1.0707       C18-C39=1.4189       H19-C33=1.0795       
H20-C53=1.0822       C21-N13=1.3288       C21-H42=1.0814       C21-C48=1.3842       C22-C35=1.3908       C22-C37=1.3880       
C22-H54=1.0789       O23-N3=1.2086        C24-C29=1.5087       C24-C33=1.3921       C24-C49=1.3876       C25-C4=1.4142        
C25-C16=1.3890       C25-C38=1.4371       C26-C5=1.4897        C26-F12=1.3471       C26-F40=1.3335       C26-F50=1.3479       
N27-C5=1.3683        N27-C14=1.3648       N27-H46=1.0077       O28-C29=1.2095       C29-C2=1.4746        C29-C24=1.5087       
C29-O28=1.2095       H30-C18=1.0707       H31-C16=1.0789       H32-C17=1.0790       C33-C8=1.3851        C33-H19=1.0795       
C33-C24=1.3921       C34-N3=1.4533        C34-C44=1.3919       C34-C49=1.3878       C35-C16=1.3813       C35-C22=1.3908       
C35-H47=1.0789       C36-H10=1.0780       C36-C17=1.3703       C36-C39=1.3989       C37-C4=1.3948        C37-C7=1.4745        
C37-C22=1.3880       C38-C25=1.4371       C38-C41=1.4161       C38-C48=1.3895       C39-C14=1.4151       C39-C18=1.4189       
C39-C36=1.3989       F40-C26=1.3335       C41-N9=1.3738        C41-C38=1.4161       C41-C53=1.3877       H42-C21=1.0814       
O43-N51=1.2025       C44-C8=1.3867        C44-C34=1.3919       C44-N51=1.4691       H45-C49=1.0801       H46-N27=1.0077       
H47-C35=1.0789       C48-H1=1.0784        C48-C21=1.3842       C48-C38=1.3895       C49-C24=1.3876       C49-C34=1.3878       
C49-H45=1.0801       F50-C26=1.3479       N51-O15=1.2028       N51-O43=1.2025       N51-C44=1.4691       H52-N9=1.0055        
C53-N13=1.3174       C53-H20=1.0822       C53-C41=1.3877       H54-C22=1.0789       
 C  H  Rav=1.0788 sigma=0.0027  Rmin=1.0707  Rmax=1.0822    12
 C  C  Rav=1.4081 sigma=0.0351  Rmin=1.3681  Rmax=1.5087    29
 N  H  Rav=1.0066 sigma=0.0011  Rmin=1.0055  Rmax=1.0077     2
 N  C  Rav=1.3811 sigma=0.0504  Rmin=1.3174  Rmax=1.4691     8
 O  C  Rav=1.2095 sigma=0.0000  Rmin=1.2095  Rmax=1.2095     1
 O  N  Rav=1.2048 sigma=0.0024  Rmin=1.2025  Rmax=1.2086     4
 F  C  Rav=1.3428 sigma=0.0066  Rmin=1.3335  Rmax=1.3479     3

 selected bond angles (degree)
 --------------------
C17-C2-C7=120.23               C29-C2-C7=120.07               C29-C2-C17=119.68              O23-N3-O11=126.08              
C34-N3-O11=117.34              C34-N3-O23=116.56              C25-C4-N9=109.30               C37-C4-N9=129.17               
C37-C4-C25=121.53              C26-C5-C18=129.34              N27-C5-C18=110.45              N27-C5-C26=120.21              
C14-C7-C2=116.51               C37-C7-C2=125.92               C37-C7-C14=117.56              C33-C8-H6=120.57               
C44-C8-H6=119.49               C44-C8-C33=119.94              C41-N9-C4=108.89               H52-N9-C4=125.67               
H52-N9-C41=125.22              

 selected dihedral angles (degree)
 ---------------------------------
C14-C7-C2-C17=  2.22          C14-C7-C2-C29=183.49          C37-C7-C2-C17=181.39          C37-C7-C2-C29=  2.66          
C41-N9-C4-C25=359.14          C41-N9-C4-C37=178.85          H52-N9-C4-C25=184.25          H52-N9-C4-C37=  3.96          
           -------------------------------------------------
          |                Final Singlepoint                |
           -------------------------------------------------

          ...................................................
          :                      SETUP                      :
          :.................................................:
          :  # basis functions                 174          :
          :  # atomic orbitals                 174          :
          :  # shells                           94          :
          :  # electrons                       198          :
          :  max. iterations                   250          :
          :  Hamiltonian                  GFN2-xTB          :
          :  restarted?                      false          :
          :  GBSA solvation                  false          :
          :  PC potential                    false          :
          :  electronic temp.          300.0000000     K    :
          :  accuracy                    1.0000000          :
          :  -> integral cutoff          0.2500000E+02      :
          :  -> integral neglect         0.1000000E-07      :
          :  -> SCF convergence          0.1000000E-05 Eh   :
          :  -> wf. convergence          0.1000000E-03 e    :
          :  Broyden damping             0.4000000          :
          :  net charge                          0          :
          :  unpaired electrons                  0          :
          ...................................................

 iter      E             dE          RMSdq      gap      omega  full diag
   1   -115.3921605 -0.115392E+03  0.117E-04    0.63       0.0  T
   2   -115.3921605 -0.169209E-09  0.893E-05    0.63     152.3  T
   3   -115.3921605 -0.432124E-09  0.383E-05    0.63     355.5  T

   *** convergence criteria satisfied after 3 iterations ***

         #    Occupation            Energy/Eh            Energy/eV
      -------------------------------------------------------------
         1        2.0000           -0.9022871             -24.5525
       ...           ...                  ...                  ...
        93        2.0000           -0.4438455             -12.0777
        94        2.0000           -0.4338450             -11.8055
        95        2.0000           -0.4278243             -11.6417
        96        2.0000           -0.4241328             -11.5412
        97        2.0000           -0.4089773             -11.1288
        98        2.0000           -0.3923241             -10.6757
        99        2.0000           -0.3763480             -10.2410 (HOMO)
       100        0.0000           -0.3531188              -9.6089 (LUMO)
       101                         -0.3294876              -8.9658
       102                         -0.3244860              -8.8297
       103                         -0.3004005              -8.1743
       104                         -0.2812977              -7.6545
       ...                                ...                  ...
       174                          0.7139220              19.4268
      -------------------------------------------------------------
                  HL-Gap            0.0232292 Eh            0.6321 eV
             Fermi-level           -0.3647334 Eh           -9.9249 eV

 SCC (total)                   0 d,  0 h,  0 min,  0.051 sec
 SCC setup                      ...        0 min,  0.000 sec (  0.946%)
 Dispersion                     ...        0 min,  0.001 sec (  1.223%)
 classical contributions        ...        0 min,  0.000 sec (  0.471%)
 integral evaluation            ...        0 min,  0.012 sec ( 22.562%)
 iterations                     ...        0 min,  0.010 sec ( 20.151%)
 molecular gradient             ...        0 min,  0.028 sec ( 54.051%)
 printout                       ...        0 min,  0.000 sec (  0.574%)

         :::::::::::::::::::::::::::::::::::::::::::::::::::::
         ::                     SUMMARY                     ::
         :::::::::::::::::::::::::::::::::::::::::::::::::::::
         :: total energy            -113.942235498664 Eh    ::
         :: gradient norm              0.001914771233 Eh/a0 ::
         :: HOMO-LUMO gap              0.632099456997 eV    ::
         ::.................................................::
         :: SCC energy              -115.391603659189 Eh    ::
         :: -> isotropic ES            0.174157323028 Eh    ::
         :: -> anisotropic ES          0.021164781217 Eh    ::
         :: -> anisotropic XC          0.009038511921 Eh    ::
         :: -> dispersion             -0.074117354135 Eh    ::
         :: repulsion energy           1.449368160525 Eh    ::
         :: add. restraining           0.000000000000 Eh    ::
         :: total charge               0.000000000001 e     ::
         :::::::::::::::::::::::::::::::::::::::::::::::::::::

           -------------------------------------------------
          |                Property Printout                |
           -------------------------------------------------

    * Orbital Energies and Occupations

         #    Occupation            Energy/Eh            Energy/eV
      -------------------------------------------------------------
         1        2.0000           -0.9022871             -24.5525
       ...           ...                  ...                  ...
        87        2.0000           -0.4691183             -12.7654
        88        2.0000           -0.4611498             -12.5485
        89        2.0000           -0.4578793             -12.4595
        90        2.0000           -0.4566600             -12.4263
        91        2.0000           -0.4504532             -12.2575
        92        2.0000           -0.4445633             -12.0972
        93        2.0000           -0.4438455             -12.0777
        94        2.0000           -0.4338450             -11.8055
        95        2.0000           -0.4278243             -11.6417
        96        2.0000           -0.4241328             -11.5412
        97        2.0000           -0.4089773             -11.1288
        98        2.0000           -0.3923241             -10.6757
        99        2.0000           -0.3763480             -10.2410 (HOMO)
       100        0.0000           -0.3531188              -9.6089 (LUMO)
       101                         -0.3294876              -8.9658
       102                         -0.3244860              -8.8297
       103                         -0.3004005              -8.1743
       104                         -0.2812977              -7.6545
       105                         -0.2759751              -7.5097
       106                         -0.2732022              -7.4342
       107                         -0.2498456              -6.7986
       108                         -0.2418329              -6.5806
       109                         -0.2214266              -6.0253
       110                         -0.2144790              -5.8363
       ...                                ...                  ...
       174                          0.7139220              19.4268
      -------------------------------------------------------------
                  HL-Gap            0.0232292 Eh            0.6321 eV
             Fermi-level           -0.3647334 Eh           -9.9249 eV

     #   Z          covCN         q      C6AA      α(0)
     1   1 H        0.926     0.039     2.464     2.455
     2   6 C        2.974    -0.026    28.646     8.779
     3   7 N        2.758     0.559    13.385     5.434
     4   6 C        3.080     0.049    26.808     8.488
     5   6 C        3.104     0.015    27.535     8.598
     6   1 H        0.926     0.082     1.956     2.187
     7   6 C        2.968     0.012    27.735     8.638
     8   6 C        2.920    -0.018    28.463     8.749
     9   7 N        2.750    -0.128    23.767     7.241
    10   1 H        0.926     0.055     2.258     2.350
    11   8 O        0.930    -0.357    20.807     6.117
    12   9 F        0.791    -0.207    11.306     3.972
    13   7 N        1.838    -0.220    26.635     7.648
    14   6 C        3.105     0.045    26.865     8.493
    15   8 O        0.930    -0.351    20.692     6.101
    16   6 C        2.912    -0.028    28.710     8.786
    17   6 C        2.922    -0.040    28.996     8.830
    18   6 C        3.005    -0.059    29.443     8.901
    19   1 H        0.926     0.071     2.071     2.250
    20   1 H        0.925     0.033     2.539     2.492
    21   6 C        2.905     0.046    26.959     8.514
    22   6 C        2.926    -0.021    28.525     8.759
    23   8 O        0.930    -0.365    20.951     6.139
    24   6 C        2.971     0.009    27.814     8.651
    25   6 C        3.067    -0.015    28.317     8.726
    26   6 C        3.332     0.486    17.344     6.605
    27   7 N        2.775    -0.089    22.980     7.120
    28   8 O        0.858    -0.341    20.533     6.075
    29   6 C        2.825     0.231    23.164     7.886
    30   1 H        0.926     0.068     2.103     2.267
    31   1 H        0.926     0.043     2.403     2.424
    32   1 H        0.926     0.042     2.429     2.437
    33   6 C        2.922    -0.012    28.317     8.726
    34   6 C        2.912     0.011    27.769     8.641
    35   6 C        2.920    -0.036    28.884     8.813
    36   6 C        2.908    -0.032    28.807     8.801
    37   6 C        2.969    -0.011    28.277     8.722
    38   6 C        3.081    -0.001    27.957     8.668
    39   6 C        3.121     0.002    27.810     8.637
    40   9 F        0.791    -0.191    11.140     3.943
    41   6 C        3.064     0.043    26.964     8.515
    42   1 H        0.925     0.041     2.432     2.439
    43   8 O        0.930    -0.352    20.706     6.102
    44   6 C        2.911     0.020    27.562     8.609
    45   1 H        0.926     0.104     1.751     2.069
    46   1 H        0.860     0.188     1.168     1.693
    47   1 H        0.926     0.044     2.400     2.423
    48   6 C        2.908    -0.042    29.052     8.838
    49   6 C        2.923    -0.012    28.307     8.725
    50   9 F        0.791    -0.205    11.291     3.969
    51   7 N        2.756     0.580    13.163     5.388
    52   1 H        0.860     0.155     1.367     1.831
    53   6 C        2.891     0.037    27.169     8.546
    54   1 H        0.926     0.044     2.390     2.417

 Mol. C6AA /au·bohr⁶  :      46643.434782
 Mol. C8AA /au·bohr⁸  :    1157430.296523
 Mol. α(0) /au        :        338.628312


Wiberg/Mayer (AO) data.
largest (>0.10) Wiberg bond orders for each atom

 ---------------------------------------------------------------------------
     #   Z sym  total        # sym  WBO       # sym  WBO       # sym  WBO
 ---------------------------------------------------------------------------
     1   1 H    0.998 --    48 C    0.968
     2   6 C    3.977 --     7 C    1.380    17 C    1.296    29 C    1.051
     3   7 N    3.917 --    11 O    1.471    23 O    1.460    34 C    0.945
     4   6 C    3.960 --    37 C    1.311    25 C    1.262     9 N    1.156
     5   6 C    3.929 --    18 C    1.552    27 N    1.198    26 C    0.959
     6   1 H    0.992 --     8 C    0.963
     7   6 C    3.984 --     2 C    1.380    14 C    1.304    37 C    1.025
     8   6 C    3.985 --    33 C    1.435    44 C    1.412     6 H    0.963
                            49 C    0.103
     9   7 N    3.505 --     4 C    1.156    41 C    1.146    52 H    0.946
    10   1 H    0.995 --    36 C    0.967
    11   8 O    1.965 --     3 N    1.471    23 O    0.376
    12   9 F    1.068 --    26 C    0.940
    13   7 N    3.049 --    53 C    1.465    21 C    1.403
    14   6 C    3.953 --     7 C    1.304    39 C    1.248    27 N    1.180
    15   8 O    1.985 --    51 N    1.485    43 O    0.389
    16   6 C    3.975 --    35 C    1.468    25 C    1.364    31 H    0.969
                            37 C    0.103
    17   6 C    3.990 --    36 C    1.545     2 C    1.296    32 H    0.963
    18   6 C    3.975 --     5 C    1.552    39 C    1.249    30 H    0.969
    19   1 H    0.994 --    33 C    0.965
    20   1 H    0.998 --    53 C    0.961
    21   6 C    3.975 --    48 C    1.455    13 N    1.403    42 H    0.964
    22   6 C    3.968 --    37 C    1.418    35 C    1.406    54 H    0.970
    23   8 O    1.968 --     3 N    1.460    11 O    0.376
    24   6 C    3.983 --    49 C    1.411    33 C    1.394    29 C    0.962
    25   6 C    3.983 --    16 C    1.364     4 C    1.262    38 C    1.146
    26   6 C    3.837 --    40 F    0.964     5 C    0.959    12 F    0.940
                            50 F    0.939
    27   7 N    3.561 --     5 C    1.198    14 C    1.180    46 H    0.934
    28   8 O    2.076 --    29 C    1.815
    29   6 C    3.929 --    28 O    1.815     2 C    1.051    24 C    0.962
    30   1 H    0.995 --    18 C    0.969
    31   1 H    0.997 --    16 C    0.969
    32   1 H    0.997 --    17 C    0.963
    33   6 C    3.987 --     8 C    1.435    24 C    1.394    19 H    0.965
    34   6 C    3.968 --    49 C    1.392    44 C    1.360     3 N    0.945
    35   6 C    3.983 --    16 C    1.468    22 C    1.406    47 H    0.969
    36   6 C    3.986 --    17 C    1.545    39 C    1.296    10 H    0.967
    37   6 C    3.979 --    22 C    1.418     4 C    1.311     7 C    1.025
                            16 C    0.103
    38   6 C    3.986 --    48 C    1.369    41 C    1.259    25 C    1.146
    39   6 C    3.984 --    36 C    1.296    18 C    1.249    14 C    1.248
    40   9 F    1.087 --    26 C    0.964
    41   6 C    3.959 --    53 C    1.348    38 C    1.259     9 N    1.146
    42   1 H    0.998 --    21 C    0.964
    43   8 O    1.981 --    51 N    1.485    15 O    0.389
    44   6 C    3.974 --     8 C    1.412    34 C    1.360    51 N    0.905
    45   1 H    0.988 --    49 C    0.954
    46   1 H    0.964 --    27 N    0.934
    47   1 H    0.997 --    35 C    0.969
    48   6 C    3.980 --    21 C    1.455    38 C    1.369     1 H    0.968
                            53 C    0.111
    49   6 C    3.980 --    24 C    1.411    34 C    1.392    45 H    0.954
                             8 C    0.103
    50   9 F    1.069 --    26 C    0.939
    51   7 N    3.923 --    43 O    1.485    15 O    1.485    44 C    0.905
    52   1 H    0.975 --     9 N    0.946
    53   6 C    3.981 --    13 N    1.465    41 C    1.348    20 H    0.961
                            48 C    0.111
    54   1 H    0.998 --    22 C    0.970
 ---------------------------------------------------------------------------

Topologies differ in total number of bonds
Writing corrected topology to xtbtopo.sdf

molecular dipole:
                 x           y           z       tot (Debye)
 q only:        1.202      -2.054       0.352
   full:        1.347      -1.863       0.128       5.853
molecular quadrupole (traceless):
                xx          xy          yy          xz          yz          zz
 q only:       22.688      42.099     -57.663      -1.131      17.120      34.975
  q+dip:       23.970      43.676     -57.846       2.389      22.364      33.876
   full:       25.920      41.742     -60.905      -1.331      22.976      34.986

           -------------------------------------------------
          |                Geometry Summary                 |
           -------------------------------------------------

      molecular mass/u    :      545.4267899
   center of mass at/Å    :        0.1476085       0.3145446      -0.0776480
  moments of inertia/u·Å² :        0.3793900E+04   0.1122310E+05   0.1297596E+05
rotational constants/cm⁻¹ :        0.4443352E-02   0.1502048E-02   0.1299143E-02

 * 54 selected distances

     #   Z          #   Z                                           value/Å
     2   6 C        7   6 C                                       1.3994105
     6   1 H        8   6 C                                       1.0792908
     4   6 C        9   7 N                                       1.3737712
     3   7 N       11   8 O                                       1.2052177
     7   6 C       14   6 C                                       1.3974682
     2   6 C       17   6 C                                       1.4145711
     5   6 C       18   6 C                                       1.3681060
    13   7 N       21   6 C                                       1.3287928
     3   7 N       23   8 O                                       1.2085534
     4   6 C       25   6 C                                       1.4141914
    16   6 C       25   6 C                                       1.3890105
     5   6 C       26   6 C                                       1.4897004 (max)
    12   9 F       26   6 C                                       1.3470524
     5   6 C       27   7 N                                       1.3682909
    14   6 C       27   7 N                                       1.3647704
    28   8 O       29   6 C                                       1.2095093
    18   6 C       30   1 H                                       1.0707193
    16   6 C       31   1 H                                       1.0788940
    17   6 C       32   1 H                                       1.0789658
     8   6 C       33   6 C                                       1.3851414
    19   1 H       33   6 C                                       1.0794768
    24   6 C       33   6 C                                       1.3921393
    16   6 C       35   6 C                                       1.3812703
    22   6 C       35   6 C                                       1.3908128
    10   1 H       36   6 C                                       1.0780209
    17   6 C       36   6 C                                       1.3702546
     4   6 C       37   6 C                                       1.3948159
    22   6 C       37   6 C                                       1.3880060
    25   6 C       38   6 C                                       1.4371031
    14   6 C       39   6 C                                       1.4151082
    18   6 C       39   6 C                                       1.4188813
    36   6 C       39   6 C                                       1.3989333
    26   6 C       40   9 F                                       1.3335460
     9   7 N       41   6 C                                       1.3737904
    38   6 C       41   6 C                                       1.4161443
    21   6 C       42   1 H                                       1.0813554
     8   6 C       44   6 C                                       1.3867090
    34   6 C       44   6 C                                       1.3918664
    27   7 N       46   1 H                                       1.0077175
    35   6 C       47   1 H                                       1.0789464
     1   1 H       48   6 C                                       1.0784057
    21   6 C       48   6 C                                       1.3841926
    38   6 C       48   6 C                                       1.3895198
    24   6 C       49   6 C                                       1.3876291
    34   6 C       49   6 C                                       1.3877502
    45   1 H       49   6 C                                       1.0801375
    26   6 C       50   9 F                                       1.3478558
    15   8 O       51   7 N                                       1.2027741
    43   8 O       51   7 N                                       1.2024723
     9   7 N       52   1 H                                       1.0054543 (min)
    13   7 N       53   6 C                                       1.3173678
    20   1 H       53   6 C                                       1.0822388
    41   6 C       53   6 C                                       1.3877318
    22   6 C       54   1 H                                       1.0788885

 * 7 distinct bonds (by element types)

   Z      Z             #   av. dist./Å        max./Å        min./Å
   1 H    6 C          12     1.0787783     1.0822388     1.0707193
   6 C    6 C          26     1.3990949     1.4897004     1.3681060
   1 H    7 N           2     1.0065859     1.0077175     1.0054543
   6 C    7 N           6     1.3544639     1.3737904     1.3173678
   6 C    8 O           1     1.2095093     1.2095093     1.2095093
   7 N    8 O           4     1.2047544     1.2085534     1.2024723
   6 C    9 F           3     1.3428180     1.3478558     1.3335460


optimized geometry written to: xtbopt.sdf


           -------------------------------------------------
          | TOTAL ENERGY             -113.942235498664 Eh   |
Note: The following floating-point exceptions are signalling: IEEE_UNDERFLOW_FLAG IEEE_DENORMAL
normal termination of xtb
          | GRADIENT NORM               0.001914771233 Eh/α |
          | HOMO-LUMO GAP               0.632099456997 eV   |
           -------------------------------------------------

------------------------------------------------------------------------
 * finished run on 2026/08/25 at 07:10:00.828     
------------------------------------------------------------------------
 total:
 * wall-time:     0 d,  0 h,  0 min,  2.484 sec
 *  cpu-time:     0 d,  0 h,  0 min,  2.455 sec
 * ratio c/w:     0.988 speedup
 SCF:
 * wall-time:     0 d,  0 h,  0 min,  0.148 sec
 *  cpu-time:     0 d,  0 h,  0 min,  0.148 sec
 * ratio c/w:     1.000 speedup
 ANC optimizer:
 * wall-time:     0 d,  0 h,  0 min,  2.305 sec
 *  cpu-time:     0 d,  0 h,  0 min,  2.290 sec
 * ratio c/w:     0.993 speedup

