      -----------------------------------------------------------      
     |                   =====================                   |     
     |                           x T B                           |     
     |                   =====================                   |     
     |                         S. Grimme                         |     
     |          Mulliken Center for Theoretical Chemistry        |     
     |                    University of Bonn                     |     
      -----------------------------------------------------------      

   * xtb version 6.7.1 (edcfbbe) compiled by 'conda@5dfe00f5fb80' on 2026-06-10

   xtb is free software: you can redistribute it and/or modify it under
   the terms of the GNU Lesser General Public License as published by
   the Free Software Foundation, either version 3 of the License, or
   (at your option) any later version.
   
   xtb is distributed in the hope that it will be useful,
   but WITHOUT ANY WARRANTY; without even the implied warranty of
   MERCHANTABILITY or FITNESS FOR A PARTICULAR PURPOSE.  See the
   GNU Lesser General Public License for more details.
   
   Cite this work as:
   * C. Bannwarth, E. Caldeweyher, S. Ehlert, A. Hansen, P. Pracht,
     J. Seibert, S. Spicher, S. Grimme, WIREs Comput. Mol. Sci., 2020, 11,
     e01493. DOI: 10.1002/wcms.1493
   
   for GFN2-xTB:
   * C. Bannwarth, S. Ehlert and S. Grimme., J. Chem. Theory Comput., 2019,
     15, 1652-1671. DOI: 10.1021/acs.jctc.8b01176
   for GFN1-xTB:
   * S. Grimme, C. Bannwarth, P. Shushkov, J. Chem. Theory Comput., 2017,
     13, 1989-2009. DOI: 10.1021/acs.jctc.7b00118
   for GFN0-xTB:
   * P. Pracht, E. Caldeweyher, S. Ehlert, S. Grimme, ChemRxiv, 2019, preprint.
     DOI: 10.26434/chemrxiv.8326202.v1
   for GFN-FF:
   * S. Spicher and S. Grimme, Angew. Chem. Int. Ed., 2020, 59, 15665-15673.
     DOI: 10.1002/anie.202004239
   
   for ALPB and GBSA implicit solvation:
   * S. Ehlert, M. Stahn, S. Spicher, S. Grimme, J. Chem. Theory Comput.,
     2021, 17, 4250-4261. DOI: 10.1021/acs.jctc.1c00471
   
   for ddCOSMO and CPCM-X implicit solvation:
   * M. Stahn, S. Ehlert, S. Grimme, J. Phys. Chem. A,
     2023, XX, XXXX-XXXX. DOI: 10.1021/acs.jpca.3c04382
   
   for DFT-D4:
   * E. Caldeweyher, C. Bannwarth and S. Grimme, J. Chem. Phys., 2017,
     147, 034112. DOI: 10.1063/1.4993215
   * E. Caldeweyher, S. Ehlert, A. Hansen, H. Neugebauer, S. Spicher,
     C. Bannwarth and S. Grimme, J. Chem. Phys., 2019, 150, 154122.
     DOI: 10.1063/1.5090222
   * E. Caldeweyher, J.-M. Mewes, S. Ehlert and S. Grimme, Phys. Chem. Chem. Phys.
     2020, 22, 8499-8512. DOI: 10.1039/D0CP00502A
   
   for sTDA-xTB:
   * S. Grimme and C. Bannwarth, J. Chem. Phys., 2016, 145, 054103.
     DOI: 10.1063/1.4959605
   
   in the mass-spec context:
   * V. Asgeirsson, C. Bauer and S. Grimme, Chem. Sci., 2017, 8, 4879.
     DOI: 10.1039/c7sc00601b
   * J. Koopman and S. Grimme, ACS Omega 2019, 4, 12, 15120-15133.
     DOI: 10.1021/acsomega.9b02011
   
   for metadynamics refer to:
   * S. Grimme, J. Chem. Theory Comput., 2019, 155, 2847-2862
     DOI: 10.1021/acs.jctc.9b00143
   
   for SPH calculations refer to:
   * S. Spicher and S. Grimme, J. Chem. Theory Comput., 2021, 17, 1701-1714
     DOI: 10.1021/acs.jctc.0c01306
   
   for ONIOM refer to:
   * C. Plett, A. Katbashev, S. Ehlert, S. Grimme, M. Bursch,
     Phys. Chem. Chem. Phys., 2023, 25, 17860-17868. DOI: 10.1039/D3CP02178E
   
   for DIPRO refer to:
   * J. Kohn, N. Gildemeister, S. Grimme, D. Fazzi, A. Hansen,
     J. Chem. Phys., 2023, just accepted.
   
   for PTB refer to:
   * S. Grimme, M. Mueller, A. Hansen, J. Chem. Phys., 2023, 158, 124111.
     DOI: 10.1063/5.0137838
   
   with help from (in alphabetical order)
   P. Atkinson, C. Bannwarth, F. Bohle, G. Brandenburg, E. Caldeweyher
   M. Checinski, S. Dohm, S. Ehlert, S. Ehrlich, I. Gerasimov, C. Hölzer
   A. Katbashev, J. Kohn, J. Koopman, C. Lavigne, S. Lehtola, F. März, M. Müller,
   F. Musil, H. Neugebauer, J. Pisarek, C. Plett, P. Pracht, F. Pultar,
   J. Seibert, P. Shushkov, S. Spicher, M. Stahn, M. Steiner, T. Strunk,
   J. Stückrath, T. Rose, and J. Unsleber
   
 * started run on 2026/08/25 at 07:09:58.343     
   ID    Z sym.   atoms
    1    6 C      1, 2, 4, 7-11, 16-18, 20, 22, 24, 25, 28-31, 34-36, 38, 40,
                  45, 47-49, 51, 54, 55, 58, 59, 61-67, 69-72, 76, 77, 79,
                  81-84, 86, 87, 89, 92, 95
    2   16 S      3
    3    1 H      5, 6, 12-15, 19, 21, 23, 27, 32, 33, 37, 39, 41-43, 46, 50,
                  52, 53, 56, 57, 60, 68, 73-75, 78, 80, 85, 88, 90, 91, 94
    4    7 N      26, 44, 93

           -------------------------------------------------
          |                Calculation Setup                |
           -------------------------------------------------

          program call               : xtb 00086.sdf --opt loose --cycles 500
          coordinate file            : 00086.sdf
          omp threads                :                     1


           -------------------------------------------------
          |                 G F N 2 - x T B                 |
           -------------------------------------------------

        Reference                      10.1021/acs.jctc.8b01176
      * Hamiltonian:
        H0-scaling (s, p, d)           1.850000    2.230000    2.230000
        zeta-weighting                 0.500000
      * Dispersion:
        s8                             2.700000
        a1                             0.520000
        a2                             5.000000
        s9                             5.000000
      * Repulsion:
        kExp                           1.500000    1.000000
        rExp                           1.000000
      * Coulomb:
        alpha                          2.000000
        third order                    shell-resolved
        anisotropic                    true
        a3                             3.000000
        a5                             4.000000
        cn-shift                       1.200000
        cn-exp                         4.000000
        max-rad                        5.000000


          ...................................................
          :                      SETUP                      :
          :.................................................:
          :  # basis functions                 281          :
          :  # atomic orbitals                 280          :
          :  # shells                          156          :
          :  # electrons                       280          :
          :  max. iterations                   250          :
          :  Hamiltonian                  GFN2-xTB          :
          :  restarted?                      false          :
          :  GBSA solvation                  false          :
          :  PC potential                    false          :
          :  electronic temp.          300.0000000     K    :
          :  accuracy                    1.0000000          :
          :  -> integral cutoff          0.2500000E+02      :
          :  -> integral neglect         0.1000000E-07      :
          :  -> SCF convergence          0.1000000E-05 Eh   :
          :  -> wf. convergence          0.1000000E-03 e    :
          :  Broyden damping             0.4000000          :
          :  net charge                          0          :
          :  unpaired electrons                  0          :
          ...................................................

 iter      E             dE          RMSdq      gap      omega  full diag
   1   -151.1449234 -0.151145E+03  0.468E+00    0.23       0.0  T
   2   -149.2326138  0.191231E+01  0.374E+00    0.12       1.0  T
   3   -142.8154211  0.641719E+01  0.490E+00    0.10       1.0  T
   4   -149.6009138 -0.678549E+01  0.278E+00    0.25       1.0  T
   5   -151.0778859 -0.147697E+01  0.167E+00    0.25       1.0  T
   6   -151.2093114 -0.131425E+00  0.106E+00    0.05       1.0  T
   7   -151.3488190 -0.139508E+00  0.870E-01    0.15       1.0  T
   8   -151.3724843 -0.236653E-01  0.691E-01    0.28       1.0  T
   9   -151.4159241 -0.434398E-01  0.419E-01    0.25       1.0  T
  10   -151.4071689  0.875518E-02  0.365E-01    0.05       1.0  T
  11   -151.4285223 -0.213534E-01  0.202E-01    0.18       1.0  T
  12   -151.4291830 -0.660666E-03  0.176E-01    0.12       1.0  T
  13   -151.4277794  0.140363E-02  0.131E-01    0.10       1.0  T
  14   -151.4257170  0.206240E-02  0.200E-01    0.17       1.0  T
  15   -151.4316046 -0.588763E-02  0.821E-02    0.18       1.0  T
  16   -151.4327248 -0.112015E-02  0.375E-02    0.17       1.0  T
  17   -151.4329592 -0.234442E-03  0.146E-02    0.16       1.0  T
  18   -151.4329964 -0.372364E-04  0.724E-03    0.16       1.4  T
  19   -151.4330029 -0.642434E-05  0.419E-03    0.16       2.5  T
  20   -151.4330063 -0.345082E-05  0.201E-03    0.16       5.1  T
  21   -151.4330066 -0.311602E-06  0.142E-03    0.15       7.2  T
  22   -151.4330070 -0.384772E-06  0.269E-04    0.15      38.2  T
  23   -151.4330070 -0.103543E-08  0.223E-04    0.15      45.9  T

   *** convergence criteria satisfied after 23 iterations ***

         #    Occupation            Energy/Eh            Energy/eV
      -------------------------------------------------------------
         1        2.0000           -0.7093568             -19.3026
       ...           ...                  ...                  ...
       134        2.0000           -0.3635409              -9.8925
       135        2.0000           -0.3625034              -9.8642
       136        2.0000           -0.3564022              -9.6982
       137        2.0000           -0.3528244              -9.6008
       138        2.0000           -0.3476130              -9.4590
       139        1.9954           -0.3341134              -9.0917
       140        1.9055           -0.3312012              -9.0124 (HOMO)
       141        0.0991           -0.3255418              -8.8584 (LUMO)
       142                         -0.3040403              -8.2734
       143                         -0.2981666              -8.1135
       144                         -0.2808176              -7.6414
       145                         -0.2748186              -7.4782
       ...                                ...                  ...
       280                          0.6595129              17.9463
      -------------------------------------------------------------
                  HL-Gap            0.0056594 Eh            0.1540 eV
             Fermi-level           -0.3283477 Eh           -8.9348 eV

 SCC (total)                   0 d,  0 h,  0 min,  0.357 sec
 SCC setup                      ...        0 min,  0.001 sec (  0.229%)
 Dispersion                     ...        0 min,  0.003 sec (  0.863%)
 classical contributions        ...        0 min,  0.000 sec (  0.099%)
 integral evaluation            ...        0 min,  0.040 sec ( 11.286%)
 iterations                     ...        0 min,  0.231 sec ( 64.546%)
 molecular gradient             ...        0 min,  0.081 sec ( 22.656%)
 printout                       ...        0 min,  0.001 sec (  0.318%)

         :::::::::::::::::::::::::::::::::::::::::::::::::::::
         ::                     SUMMARY                     ::
         :::::::::::::::::::::::::::::::::::::::::::::::::::::
         :: total energy            -149.198137459600 Eh    ::
         :: gradient norm              0.412916574636 Eh/a0 ::
         :: HOMO-LUMO gap              0.154000495191 eV    ::
         ::.................................................::
         :: SCC energy              -151.431898124669 Eh    ::
         :: -> isotropic ES            0.032950542271 Eh    ::
         :: -> anisotropic ES          0.019636651500 Eh    ::
         :: -> anisotropic XC          0.106967048744 Eh    ::
         :: -> dispersion             -0.135394115442 Eh    ::
         :: repulsion energy           2.233760665068 Eh    ::
         :: add. restraining           0.000000000000 Eh    ::
         :: total charge               0.000000000000 e     ::
         :::::::::::::::::::::::::::::::::::::::::::::::::::::

      ----------------------------------------------------------- 
     |                   =====================                   |
     |                        A N C O P T                        |
     |                   =====================                   |
     |               Approximate Normal Coordinate               |
     |                Rational Function Optimizer                |
      ----------------------------------------------------------- 
      ----------------------------------------------------------- 
     |                   =====================                   |
     |                        A N C O P T                        |
     |                   =====================                   |
     |               Approximate Normal Coordinate               |
     |                Rational Function Optimizer                |
      ----------------------------------------------------------- 

          ...................................................
          :                      SETUP                      :
          :.................................................:
          :   optimization level             loose          :
          :   max. optcycles                   500          :
          :   ANC micro-cycles                  20          :
          :   degrees of freedom               279          :
          :.................................................:
          :   RF solver                   davidson          :
          :   write xtbopt.log                true          :
          :   linear?                        false          :
          :   energy convergence         0.5000000E-04 Eh   :
          :   grad. convergence          0.4000000E-02 Eh/α :
          :   maxmium RF displ.          1.0000000          :
          :   Hlow (freq-cutoff)         0.1000000E-01      :
          :   Hmax (freq-cutoff)         5.0000000          :
          :   S6 in model hess.         20.0000000          :
          ...................................................

generating ANC from exact Hessian ...
Using Lindh-Hessian (1995)
 Shifting diagonal of input Hessian by    9.9781572103903628E-003
 Lowest  eigenvalues of input Hessian
    0.000000    0.000000    0.000000    0.000000    0.000000    0.010000
    0.000000    0.010022    0.010051    0.010112    0.010181    0.010313
    0.010362    0.010541    0.010715    0.010815    0.010909    0.010971
 Highest eigenvalues
    1.869998    1.898004    1.913098    1.942827    2.037993    2.065130


........................................................................
.............................. CYCLE    1 ..............................
........................................................................

 iter      E             dE          RMSdq      gap      omega  full diag
   1   -151.4330070 -0.151433E+03  0.105E-04    0.15       0.0  T
   2   -151.4330070  0.622992E-07  0.586E-04    0.15      17.5  T
   3   -151.4330070 -0.354023E-07  0.342E-04    0.15      30.0  T
     SCC iter.                  ...        0 min,  0.032 sec
     gradient                   ...        0 min,  0.087 sec
 * total energy  :  -149.1981374 Eh     change        0.1871658E-07 Eh
   gradient norm :     0.4129179 Eh/α   predicted     0.0000000E+00 (-100.00%)
   displ. norm   :     0.6099788 α      lambda       -0.1828760E+00
   maximum displ.:     0.1788528 α      in ANC's #119, #60, #111, ...

........................................................................
.............................. CYCLE    2 ..............................
........................................................................

 iter      E             dE          RMSdq      gap      omega  full diag
   1   -151.6672087 -0.151667E+03  0.330E-01    0.21       0.0  T
   2   -151.6328088  0.343999E-01  0.484E-01    0.10       1.0  T
   3   -151.5980690  0.347399E-01  0.594E-01    0.30       1.0  T
   4   -151.6216130 -0.235440E-01  0.466E-01    0.28       1.0  T
   5   -151.6593298 -0.377168E-01  0.217E-01    0.22       1.0  T
   6   -151.6665379 -0.720809E-02  0.112E-01    0.17       1.0  T
   7   -151.6685479 -0.201004E-02  0.533E-02    0.20       1.0  T
   8   -151.6686240 -0.760970E-04  0.454E-02    0.18       1.0  T
   9   -151.6689291 -0.305065E-03  0.186E-02    0.18       1.0  T
  10   -151.6689739 -0.448272E-04  0.307E-03    0.17       3.3  T
  11   -151.6689752 -0.123913E-05  0.172E-03    0.17       6.0  T
  12   -151.6689754 -0.284628E-06  0.922E-04    0.17      11.1  T
  13   -151.6689755 -0.576024E-07  0.586E-04    0.17      17.5  T
     SCC iter.                  ...        0 min,  0.126 sec
     gradient                   ...        0 min,  0.082 sec
 * total energy  :  -149.3426501 Eh     change       -0.1445127E+00 Eh
   gradient norm :     0.2096895 Eh/α   predicted    -0.1255222E+00 ( -13.14%)
   displ. norm   :     0.6984390 α      lambda       -0.1108945E+00
   maximum displ.:     0.2081640 α      in ANC's #119, #60, #111, ...

........................................................................
.............................. CYCLE    3 ..............................
........................................................................

 iter      E             dE          RMSdq      gap      omega  full diag
   1   -151.8939468 -0.151894E+03  0.321E-01    0.23       0.0  T
   2   -151.8763576  0.175892E-01  0.341E-01    0.16       1.0  T
   3   -151.7624826  0.113875E+00  0.760E-01    0.30       1.0  T
   4   -151.8882969 -0.125814E+00  0.235E-01    0.30       1.0  T
   5   -151.8929031 -0.460617E-02  0.119E-01    0.21       1.0  T
   6   -151.8950144 -0.211134E-02  0.342E-02    0.19       1.0  T
   7   -151.8951507 -0.136306E-03  0.214E-02    0.20       1.0  T
   8   -151.8951788 -0.280470E-04  0.133E-02    0.19       1.0  T
   9   -151.8951948 -0.160144E-04  0.708E-03    0.20       1.4  T
  10   -151.8952000 -0.527719E-05  0.198E-03    0.19       5.2  T
  11   -151.8952003 -0.217845E-06  0.123E-03    0.19       8.3  T
  12   -151.8952004 -0.116661E-06  0.502E-04    0.19      20.4  T
  13   -151.8952004 -0.947361E-08  0.304E-04    0.19      33.7  T
     SCC iter.                  ...        0 min,  0.124 sec
     gradient                   ...        0 min,  0.078 sec
 * total energy  :  -149.4245921 Eh     change       -0.8194197E-01 Eh
   gradient norm :     0.0861906 Eh/α   predicted    -0.8249675E-01 (   0.68%)
   displ. norm   :     0.7506373 α      lambda       -0.5485820E-01
   maximum displ.:     0.1977883 α      in ANC's #60, #57, #19, ...

........................................................................
.............................. CYCLE    4 ..............................
........................................................................

 iter      E             dE          RMSdq      gap      omega  full diag
   1   -152.0383228 -0.152038E+03  0.265E-01    0.24       0.0  T
   2   -152.0304261  0.789671E-02  0.241E-01    0.19       1.0  T
   3   -151.9195733  0.110853E+00  0.708E-01    0.30       1.0  T
   4   -152.0352317 -0.115658E+00  0.132E-01    0.26       1.0  T
   5   -152.0386464 -0.341471E-02  0.239E-02    0.22       1.0  T
   6   -152.0387007 -0.542962E-04  0.160E-02    0.21       1.0  T
   7   -152.0387229 -0.221907E-04  0.964E-03    0.21       1.1  T
   8   -152.0387256 -0.270130E-05  0.675E-03    0.21       1.5  T
   9   -152.0387283 -0.267859E-05  0.268E-03    0.21       3.8  T
  10   -152.0387289 -0.640967E-06  0.120E-03    0.21       8.5  T
  11   -152.0387291 -0.221332E-06  0.529E-04    0.21      19.4  T
  12   -152.0387291 -0.165875E-07  0.262E-04    0.21      39.1  T
     SCC iter.                  ...        0 min,  0.123 sec
     gradient                   ...        0 min,  0.081 sec
 * total energy  :  -149.4692872 Eh     change       -0.4469510E-01 Eh
   gradient norm :     0.0603849 Eh/α   predicted    -0.4288429E-01 (  -4.05%)
   displ. norm   :     0.7915859 α      lambda       -0.3716610E-01
   maximum displ.:     0.2461213 α      in ANC's #19, #27, #26, ...

........................................................................
.............................. CYCLE    5 ..............................
........................................................................

 iter      E             dE          RMSdq      gap      omega  full diag
   1   -152.1353854 -0.152135E+03  0.236E-01    0.25       0.0  T
   2   -152.1351356  0.249818E-03  0.149E-01    0.23       1.0  T
   3   -152.0905259  0.446097E-01  0.429E-01    0.26       1.0  T
   4   -152.1299776 -0.394517E-01  0.165E-01    0.24       1.0  T
   5   -152.1354910 -0.551338E-02  0.280E-02    0.24       1.0  T
   6   -152.1355893 -0.982890E-04  0.999E-03    0.23       1.0  T
   7   -152.1356033 -0.140283E-04  0.567E-03    0.23       1.8  T
   8   -152.1356065 -0.316244E-05  0.242E-03    0.24       4.2  T
   9   -152.1356062  0.318761E-06  0.184E-03    0.23       5.6  T
  10   -152.1356068 -0.679332E-06  0.434E-04    0.23      23.7  T
  11   -152.1356068 -0.414516E-08  0.290E-04    0.23      35.4  T
     SCC iter.                  ...        0 min,  0.111 sec
     gradient                   ...        0 min,  0.081 sec
 * total energy  :  -149.5005539 Eh     change       -0.3126671E-01 Eh
   gradient norm :     0.0434689 Eh/α   predicted    -0.3022779E-01 (  -3.32%)
   displ. norm   :     0.8205455 α      lambda       -0.2684571E-01
   maximum displ.:     0.3139159 α      in ANC's #19, #26, #27, ...

........................................................................
.............................. CYCLE    6 ..............................
........................................................................

 iter      E             dE          RMSdq      gap      omega  full diag
   1   -152.1984149 -0.152198E+03  0.213E-01    0.28       0.0  T
   2   -152.1968488  0.156605E-02  0.156E-01    0.27       1.0  T
   3   -152.1582350  0.386138E-01  0.415E-01    0.29       1.0  T
   4   -152.1958065 -0.375714E-01  0.119E-01    0.24       1.0  T
   5   -152.1984393 -0.263287E-02  0.335E-02    0.27       1.0  T
   6   -152.1986279 -0.188598E-03  0.117E-02    0.26       1.0  T
   7   -152.1986530 -0.250121E-04  0.381E-03    0.27       2.7  T
   8   -152.1986510  0.197742E-05  0.372E-03    0.26       2.8  T
   9   -152.1986530 -0.199198E-05  0.182E-03    0.26       5.7  T
  10   -152.1986536 -0.636395E-06  0.431E-04    0.26      23.8  T
  11   -152.1986536 -0.928324E-08  0.224E-04    0.26      45.9  T
     SCC iter.                  ...        0 min,  0.110 sec
     gradient                   ...        0 min,  0.084 sec
 * total energy  :  -149.5237456 Eh     change       -0.2319169E-01 Eh
   gradient norm :     0.0354317 Eh/α   predicted    -0.2246040E-01 (  -3.15%)
   displ. norm   :     0.8406673 α      lambda       -0.2088902E-01
   maximum displ.:     0.3651639 α      in ANC's #19, #25, #26, ...

........................................................................
.............................. CYCLE    7 ..............................
........................................................................

 iter      E             dE          RMSdq      gap      omega  full diag
   1   -152.2429921 -0.152243E+03  0.197E-01    0.31       0.0  T
   2   -152.2373191  0.567301E-02  0.198E-01    0.31       1.0  T
   3   -152.2135427  0.237764E-01  0.358E-01    0.34       1.0  T
   4   -152.2422643 -0.287216E-01  0.849E-02    0.28       1.0  T
   5   -152.2431430 -0.878714E-03  0.286E-02    0.30       1.0  T
   6   -152.2432704 -0.127341E-03  0.125E-02    0.30       1.0  T
   7   -152.2432935 -0.231158E-04  0.566E-03    0.30       1.8  T
   8   -152.2432957 -0.223353E-05  0.345E-03    0.30       3.0  T
   9   -152.2432962 -0.454945E-06  0.170E-03    0.30       6.0  T
  10   -152.2432968 -0.582418E-06  0.461E-04    0.30      22.3  T
  11   -152.2432968 -0.143887E-07  0.278E-04    0.30      36.9  T
     SCC iter.                  ...        0 min,  0.106 sec
     gradient                   ...        0 min,  0.083 sec
 * total energy  :  -149.5421882 Eh     change       -0.1844260E-01 Eh
   gradient norm :     0.0302997 Eh/α   predicted    -0.1782587E-01 (  -3.34%)
   displ. norm   :     0.8555661 α      lambda       -0.1713429E-01
   maximum displ.:     0.3954856 α      in ANC's #19, #25, #18, ...

........................................................................
.............................. CYCLE    8 ..............................
........................................................................

 iter      E             dE          RMSdq      gap      omega  full diag
   1   -152.2718071 -0.152272E+03  0.189E-01    0.35       0.0  T
   2   -152.2603918  0.114152E-01  0.248E-01    0.35       1.0  T
   3   -152.2537476  0.664421E-02  0.287E-01    0.38       1.0  T
   4   -152.2714548 -0.177072E-01  0.757E-02    0.34       1.0  T
   5   -152.2720713 -0.616451E-03  0.275E-02    0.35       1.0  T
   6   -152.2721850 -0.113706E-03  0.129E-02    0.35       1.0  T
   7   -152.2722093 -0.243101E-04  0.536E-03    0.35       1.9  T
   8   -152.2722113 -0.196802E-05  0.292E-03    0.35       3.5  T
   9   -152.2722117 -0.403851E-06  0.132E-03    0.35       7.7  T
  10   -152.2722119 -0.288889E-06  0.502E-04    0.35      20.5  T
  11   -152.2722120 -0.269125E-07  0.274E-04    0.35      37.4  T
     SCC iter.                  ...        0 min,  0.113 sec
     gradient                   ...        0 min,  0.080 sec
 * total energy  :  -149.5574775 Eh     change       -0.1528933E-01 Eh
   gradient norm :     0.0244762 Eh/α   predicted    -0.1483824E-01 (  -2.95%)
   displ. norm   :     0.8643094 α      lambda       -0.1425512E-01
   maximum displ.:     0.4111060 α      in ANC's #19, #18, #25, ...

........................................................................
.............................. CYCLE    9 ..............................
........................................................................

 iter      E             dE          RMSdq      gap      omega  full diag
   1   -152.2940462 -0.152294E+03  0.183E-01    0.38       0.0  T
   2   -152.2827907  0.112556E-01  0.243E-01    0.36       1.0  T
   3   -152.2783381  0.445255E-02  0.268E-01    0.42       1.0  T
   4   -152.2938767 -0.155386E-01  0.633E-02    0.38       1.0  T
   5   -152.2942522 -0.375469E-03  0.271E-02    0.38       1.0  T
   6   -152.2943736 -0.121372E-03  0.119E-02    0.37       1.0  T
   7   -152.2943949 -0.213170E-04  0.440E-03    0.37       2.3  T
   8   -152.2943954 -0.538897E-06  0.270E-03    0.37       3.8  T
   9   -152.2943960 -0.564830E-06  0.106E-03    0.37       9.6  T
  10   -152.2943962 -0.166669E-06  0.479E-04    0.37      21.4  T
  11   -152.2943962 -0.244476E-07  0.246E-04    0.37      41.8  T
     SCC iter.                  ...        0 min,  0.120 sec
     gradient                   ...        0 min,  0.084 sec
 * total energy  :  -149.5702153 Eh     change       -0.1273774E-01 Eh
   gradient norm :     0.0192804 Eh/α   predicted    -0.1245206E-01 (  -2.24%)
   displ. norm   :     0.8703524 α      lambda       -0.1180460E-01
   maximum displ.:     0.4070563 α      in ANC's #19, #18, #25, ...

........................................................................
.............................. CYCLE   10 ..............................
........................................................................

 iter      E             dE          RMSdq      gap      omega  full diag
   1   -152.3046239 -0.152305E+03  0.178E-01    0.38       0.0  T
   2   -152.3002296  0.439435E-02  0.172E-01    0.37       1.0  T
   3   -152.2796002  0.206293E-01  0.328E-01    0.46       1.0  T
   4   -152.3042456 -0.246454E-01  0.595E-02    0.39       1.0  T
   5   -152.3046288 -0.383136E-03  0.274E-02    0.38       1.0  T
   6   -152.3047741 -0.145347E-03  0.958E-03    0.38       1.1  T
   7   -152.3047871 -0.129488E-04  0.320E-03    0.38       3.2  T
   8   -152.3047870  0.114459E-06  0.225E-03    0.38       4.6  T
   9   -152.3047875 -0.563260E-06  0.872E-04    0.38      11.8  T
  10   -152.3047876 -0.102750E-06  0.441E-04    0.38      23.3  T
     SCC iter.                  ...        0 min,  0.097 sec
     gradient                   ...        0 min,  0.080 sec
 * total energy  :  -149.5806308 Eh     change       -0.1041557E-01 Eh
   gradient norm :     0.0183958 Eh/α   predicted    -0.1037340E-01 (  -0.40%)
   displ. norm   :     0.8708394 α      lambda       -0.1039473E-01
   maximum displ.:     0.4139439 α      in ANC's #19, #18, #25, ...

........................................................................
.............................. CYCLE   11 ..............................
........................................................................

 iter      E             dE          RMSdq      gap      omega  full diag
   1   -152.3215880 -0.152322E+03  0.175E-01    0.39       0.0  T
   2   -152.3200758  0.151224E-02  0.130E-01    0.38       1.0  T
   3   -152.2891725  0.309032E-01  0.368E-01    0.50       1.0  T
   4   -152.3212805 -0.321079E-01  0.545E-02    0.39       1.0  T
   5   -152.3215551 -0.274597E-03  0.248E-02    0.39       1.0  T
   6   -152.3216879 -0.132878E-03  0.614E-03    0.39       1.7  T
   7   -152.3216903 -0.237369E-05  0.311E-03    0.39       3.3  T
   8   -152.3216910 -0.667802E-06  0.170E-03    0.39       6.0  T
   9   -152.3216913 -0.358869E-06  0.652E-04    0.39      15.7  T
  10   -152.3216914 -0.566686E-07  0.306E-04    0.39      33.6  T
     SCC iter.                  ...        0 min,  0.100 sec
     gradient                   ...        0 min,  0.089 sec
 * total energy  :  -149.5882440 Eh     change       -0.7613137E-02 Eh
   gradient norm :     0.0508646 Eh/α   predicted    -0.9138842E-02 (  20.04%)
   displ. norm   :     0.7858069 α      lambda       -0.9809508E-02
   maximum displ.:     0.3466492 α      in ANC's #18, #19, #25, ...

........................................................................
.............................. CYCLE   12 ..............................
........................................................................

 iter      E             dE          RMSdq      gap      omega  full diag
   1   -152.3246267 -0.152325E+03  0.154E-01    0.39       0.0  T
   2   -152.3234874  0.113928E-02  0.115E-01    0.38       1.0  T
   3   -152.2976515  0.258359E-01  0.335E-01    0.49       1.0  T
   4   -152.3245036 -0.268520E-01  0.366E-02    0.39       1.0  T
   5   -152.3246430 -0.139468E-03  0.157E-02    0.39       1.0  T
   6   -152.3246928 -0.497577E-04  0.478E-03    0.39       2.1  T
   7   -152.3246939 -0.111964E-05  0.248E-03    0.39       4.1  T
   8   -152.3246944 -0.482674E-06  0.139E-03    0.39       7.4  T
   9   -152.3246946 -0.241528E-06  0.464E-04    0.39      22.1  T
  10   -152.3246946 -0.161114E-07  0.254E-04    0.39      40.4  T
     SCC iter.                  ...        0 min,  0.107 sec
     gradient                   ...        0 min,  0.085 sec
 * total energy  :  -149.5951319 Eh     change       -0.6887912E-02 Eh
   gradient norm :     0.0245995 Eh/α   predicted    -0.7933401E-02 (  15.18%)
   displ. norm   :     0.7682945 α      lambda       -0.6985757E-02
   maximum displ.:     0.3715749 α      in ANC's #18, #19, #9, ...

........................................................................
.............................. CYCLE   13 ..............................
........................................................................

 iter      E             dE          RMSdq      gap      omega  full diag
   1   -152.3297047 -0.152330E+03  0.147E-01    0.39       0.0  T
   2   -152.3265723  0.313241E-02  0.141E-01    0.41       1.0  T
   3   -152.3007770  0.257954E-01  0.349E-01    0.38       1.0  T
   4   -152.3292556 -0.284786E-01  0.580E-02    0.40       1.0  T
   5   -152.3298180 -0.562435E-03  0.137E-02    0.39       1.0  T
   6   -152.3298421 -0.241047E-04  0.672E-03    0.39       1.5  T
   7   -152.3298456 -0.344404E-05  0.401E-03    0.39       2.6  T
   8   -152.3298476 -0.202982E-05  0.178E-03    0.39       5.7  T
   9   -152.3298478 -0.200075E-06  0.523E-04    0.39      19.6  T
  10   -152.3298478  0.754210E-08  0.403E-04    0.39      25.4  T
     SCC iter.                  ...        0 min,  0.096 sec
     gradient                   ...        0 min,  0.084 sec
 * total energy  :  -149.6003432 Eh     change       -0.5211306E-02 Eh
   gradient norm :     0.0281326 Eh/α   predicted    -0.5554652E-02 (   6.59%)
   displ. norm   :     0.7734068 α      lambda       -0.6392377E-02
   maximum displ.:     0.3505541 α      in ANC's #18, #19, #9, ...

........................................................................
.............................. CYCLE   14 ..............................
........................................................................

 iter      E             dE          RMSdq      gap      omega  full diag
   1   -152.3380755 -0.152338E+03  0.141E-01    0.39       0.0  T
   2   -152.3367898  0.128576E-02  0.111E-01    0.38       1.0  T
   3   -152.3173776  0.194121E-01  0.294E-01    0.47       1.0  T
   4   -152.3379518 -0.205742E-01  0.452E-02    0.40       1.0  T
   5   -152.3380922 -0.140410E-03  0.193E-02    0.39       1.0  T
   6   -152.3381753 -0.830964E-04  0.484E-03    0.39       2.1  T
   7   -152.3381777 -0.234925E-05  0.230E-03    0.39       4.5  T
   8   -152.3381778 -0.155220E-06  0.139E-03    0.39       7.4  T
   9   -152.3381780 -0.218426E-06  0.516E-04    0.39      19.9  T
  10   -152.3381781 -0.379113E-07  0.214E-04    0.39      47.9  T
     SCC iter.                  ...        0 min,  0.101 sec
     gradient                   ...        0 min,  0.090 sec
 * total energy  :  -149.6051966 Eh     change       -0.4853451E-02 Eh
   gradient norm :     0.0245773 Eh/α   predicted    -0.5108014E-02 (   5.24%)
   displ. norm   :     0.7575317 α      lambda       -0.5801903E-02
   maximum displ.:     0.3360655 α      in ANC's #18, #19, #9, ...

........................................................................
.............................. CYCLE   15 ..............................
........................................................................

 iter      E             dE          RMSdq      gap      omega  full diag
   1   -152.3617336 -0.152362E+03  0.136E-01    0.39       0.0  T
   2   -152.3601643  0.156938E-02  0.111E-01    0.41       1.0  T
   3   -152.3308260  0.293382E-01  0.359E-01    0.38       1.0  T
   4   -152.3615089 -0.306828E-01  0.488E-02    0.40       1.0  T
   5   -152.3618355 -0.326680E-03  0.894E-03    0.39       1.1  T
   6   -152.3618444 -0.883667E-05  0.436E-03    0.39       2.4  T
   7   -152.3618459 -0.151460E-05  0.242E-03    0.39       4.2  T
   8   -152.3618463 -0.428018E-06  0.134E-03    0.39       7.6  T
   9   -152.3618465 -0.162217E-06  0.465E-04    0.39      22.1  T
  10   -152.3618465 -0.163583E-07  0.308E-04    0.39      33.3  T
     SCC iter.                  ...        0 min,  0.100 sec
     gradient                   ...        0 min,  0.083 sec
 * total energy  :  -149.6090328 Eh     change       -0.3836143E-02 Eh
   gradient norm :     0.0317123 Eh/α   predicted    -0.4565681E-02 (  19.02%)
   displ. norm   :     0.7265252 α      lambda       -0.5090698E-02
   maximum displ.:     0.2979166 α      in ANC's #18, #9, #19, ...

........................................................................
.............................. CYCLE   16 ..............................
........................................................................

 iter      E             dE          RMSdq      gap      omega  full diag
   1   -152.3640450 -0.152364E+03  0.124E-01    0.39       0.0  T
   2   -152.3636845  0.360534E-03  0.815E-02    0.40       1.0  T
   3   -152.3397699  0.239146E-01  0.315E-01    0.38       1.0  T
   4   -152.3635043 -0.237344E-01  0.550E-02    0.40       1.0  T
   5   -152.3640919 -0.587628E-03  0.879E-03    0.39       1.2  T
   6   -152.3641037 -0.117309E-04  0.330E-03    0.39       3.1  T
   7   -152.3641042 -0.527775E-06  0.209E-03    0.39       4.9  T
   8   -152.3641047 -0.481649E-06  0.104E-03    0.39       9.8  T
   9   -152.3641048 -0.816472E-07  0.401E-04    0.39      25.6  T
  10   -152.3641048 -0.747039E-08  0.251E-04    0.39      41.0  T
     SCC iter.                  ...        0 min,  0.095 sec
     gradient                   ...        0 min,  0.080 sec
 * total energy  :  -149.6131035 Eh     change       -0.4070748E-02 Eh
   gradient norm :     0.0146280 Eh/α   predicted    -0.3888886E-02 (  -4.47%)
   displ. norm   :     0.7945055 α      lambda       -0.4044479E-02
   maximum displ.:     0.2807348 α      in ANC's #18, #9, #19, ...

........................................................................
.............................. CYCLE   17 ..............................
........................................................................

 iter      E             dE          RMSdq      gap      omega  full diag
   1   -152.3634035 -0.152363E+03  0.133E-01    0.39       0.0  T
   2   -152.3617152  0.168830E-02  0.113E-01    0.41       1.0  T
   3   -152.3374704  0.242448E-01  0.327E-01    0.38       1.0  T
   4   -152.3630370 -0.255666E-01  0.540E-02    0.40       1.0  T
   5   -152.3634920 -0.454926E-03  0.117E-02    0.40       1.0  T
   6   -152.3635127 -0.207297E-04  0.542E-03    0.39       1.9  T
   7   -152.3635156 -0.292921E-05  0.290E-03    0.39       3.5  T
   8   -152.3635164 -0.781971E-06  0.140E-03    0.39       7.3  T
   9   -152.3635165 -0.116742E-06  0.636E-04    0.39      16.1  T
  10   -152.3635166 -0.403217E-07  0.337E-04    0.39      30.5  T
     SCC iter.                  ...        0 min,  0.103 sec
     gradient                   ...        0 min,  0.085 sec
 * total energy  :  -149.6164505 Eh     change       -0.3346967E-02 Eh
   gradient norm :     0.0171974 Eh/α   predicted    -0.3298760E-02 (  -1.44%)
   displ. norm   :     0.8045030 α      lambda       -0.3785445E-02
   maximum displ.:     0.2839577 α      in ANC's #9, #18, #4, ...

........................................................................
.............................. CYCLE   18 ..............................
........................................................................

 iter      E             dE          RMSdq      gap      omega  full diag
   1   -152.3666759 -0.152367E+03  0.134E-01    0.39       0.0  T
   2   -152.3650817  0.159422E-02  0.113E-01    0.39       1.0  T
   3   -152.3410600  0.240217E-01  0.325E-01    0.38       1.0  T
   4   -152.3661458 -0.250857E-01  0.629E-02    0.40       1.0  T
   5   -152.3667962 -0.650392E-03  0.127E-02    0.39       1.0  T
   6   -152.3668194 -0.231963E-04  0.564E-03    0.39       1.8  T
   7   -152.3668219 -0.249808E-05  0.242E-03    0.39       4.2  T
   8   -152.3668221 -0.209437E-06  0.174E-03    0.39       5.9  T
   9   -152.3668224 -0.385490E-06  0.563E-04    0.39      18.2  T
  10   -152.3668225 -0.116533E-07  0.374E-04    0.39      27.4  T
     SCC iter.                  ...        0 min,  0.098 sec
     gradient                   ...        0 min,  0.096 sec
 * total energy  :  -149.6195193 Eh     change       -0.3068827E-02 Eh
   gradient norm :     0.0192753 Eh/α   predicted    -0.3117740E-02 (   1.59%)
   displ. norm   :     0.7855435 α      lambda       -0.3648537E-02
   maximum displ.:     0.2844437 α      in ANC's #9, #4, #5, ...

........................................................................
.............................. CYCLE   19 ..............................
........................................................................

 iter      E             dE          RMSdq      gap      omega  full diag
   1   -152.3772094 -0.152377E+03  0.137E-01    0.39       0.0  T
   2   -152.3772189 -0.954698E-05  0.801E-02    0.38       1.0  T
   3   -152.3745858  0.263311E-02  0.111E-01    0.38       1.0  T
   4   -152.3739062  0.679624E-03  0.117E-01    0.39       1.0  T
   5   -152.3772660 -0.335984E-02  0.107E-02    0.38       1.0  T
   6   -152.3772718 -0.582481E-05  0.639E-03    0.38       1.6  T
   7   -152.3772747 -0.282871E-05  0.261E-03    0.38       3.9  T
   8   -152.3772758 -0.107603E-05  0.924E-04    0.38      11.1  T
   9   -152.3772758 -0.921352E-07  0.332E-04    0.38      30.9  T
  10   -152.3772758 -0.173341E-08  0.199E-04    0.38      51.7  T
     SCC iter.                  ...        0 min,  0.097 sec
     gradient                   ...        0 min,  0.082 sec
 * total energy  :  -149.6212383 Eh     change       -0.1718953E-02 Eh
   gradient norm :     0.0407343 Eh/α   predicted    -0.2949984E-02 (  71.62%)
   displ. norm   :     0.6023677 α      lambda       -0.4778720E-02
   maximum displ.:     0.1982872 α      in ANC's #9, #4, #5, ...

........................................................................
.............................. CYCLE   20 ..............................
........................................................................

 iter      E             dE          RMSdq      gap      omega  full diag
   1   -152.3672125 -0.152367E+03  0.119E-01    0.37       0.0  T
   2   -152.3651438  0.206865E-02  0.115E-01    0.36       1.0  T
   3   -152.3502266  0.149172E-01  0.267E-01    0.37       1.0  T
   4   -152.3669964 -0.167698E-01  0.457E-02    0.37       1.0  T
   5   -152.3673127 -0.316314E-03  0.107E-02    0.36       1.0  T
   6   -152.3673251 -0.123622E-04  0.563E-03    0.36       1.8  T
   7   -152.3673281 -0.302793E-05  0.251E-03    0.36       4.1  T
   8   -152.3673286 -0.446477E-06  0.137E-03    0.36       7.5  T
   9   -152.3673288 -0.226097E-06  0.552E-04    0.36      18.6  T
  10   -152.3673288 -0.289790E-07  0.282E-04    0.36      36.4  T
     SCC iter.                  ...        0 min,  0.097 sec
     gradient                   ...        0 min,  0.083 sec
 * total energy  :  -149.6233855 Eh     change       -0.2147196E-02 Eh
   gradient norm :     0.0331372 Eh/α   predicted    -0.3256332E-02 (  51.66%)
   displ. norm   :     0.5127856 α      lambda       -0.3584146E-02
   maximum displ.:     0.1816438 α      in ANC's #4, #9, #12, ...
 * RMSD in coord.:     1.2728745 α      energy gain  -0.4252480E+00 Eh

generating ANC from exact Hessian ...
Using Lindh-Hessian (1995)
 Shifting diagonal of input Hessian by    1.0149707271634527E-002
 Lowest  eigenvalues of input Hessian
    0.010000    0.000000    0.000000    0.000000    0.000000    0.000000
    0.000000    0.010178    0.010238    0.010265    0.010374    0.010488
    0.010728    0.010761    0.010939    0.011115    0.011282    0.011369
 Highest eigenvalues
    2.061210    2.081742    2.124538    2.162619    2.190824    2.194755


........................................................................
.............................. CYCLE   21 ..............................
........................................................................

 iter      E             dE          RMSdq      gap      omega  full diag
   1   -152.3679621 -0.152368E+03  0.122E-01    0.36       0.0  T
   2   -152.3679371  0.249661E-04  0.746E-02    0.37       1.0  T
   3   -152.3612168  0.672035E-02  0.168E-01    0.36       1.0  T
   4   -152.3661665 -0.494973E-02  0.895E-02    0.37       1.0  T
   5   -152.3680228 -0.185625E-02  0.106E-02    0.37       1.0  T
   6   -152.3680313 -0.855371E-05  0.491E-03    0.37       2.1  T
   7   -152.3680331 -0.175432E-05  0.266E-03    0.37       3.9  T
   8   -152.3680339 -0.774183E-06  0.836E-04    0.37      12.3  T
   9   -152.3680339 -0.466917E-07  0.309E-04    0.37      33.2  T
     SCC iter.                  ...        0 min,  0.088 sec
     gradient                   ...        0 min,  0.085 sec
 * total energy  :  -149.6246335 Eh     change       -0.1248030E-02 Eh
   gradient norm :     0.0295489 Eh/α   predicted     0.0000000E+00 (-100.00%)
   displ. norm   :     0.2700650 α      lambda       -0.2589378E-02
   maximum displ.:     0.1228709 α      in ANC's #10, #5, #6, ...

........................................................................
.............................. CYCLE   22 ..............................
........................................................................

 iter      E             dE          RMSdq      gap      omega  full diag
   1   -152.3739403 -0.152374E+03  0.658E-02    0.38       0.0  T
   2   -152.3735645  0.375735E-03  0.561E-02    0.37       1.0  T
   3   -152.3691230  0.444151E-02  0.142E-01    0.38       1.0  T
   4   -152.3739197 -0.479663E-02  0.200E-02    0.37       1.0  T
   5   -152.3739655 -0.458106E-04  0.585E-03    0.37       1.8  T
   6   -152.3739698 -0.435893E-05  0.257E-03    0.37       4.0  T
   7   -152.3739705 -0.622207E-06  0.102E-03    0.37      10.1  T
   8   -152.3739705 -0.649126E-07  0.524E-04    0.37      19.6  T
   9   -152.3739706 -0.307058E-07  0.149E-04    0.37      69.0  T
     SCC iter.                  ...        0 min,  0.092 sec
     gradient                   ...        0 min,  0.083 sec
 * total energy  :  -149.6265083 Eh     change       -0.1874815E-02 Eh
   gradient norm :     0.0097545 Eh/α   predicted    -0.1391700E-02 ( -25.77%)
   displ. norm   :     0.4529534 α      lambda       -0.1848451E-02
   maximum displ.:     0.2361081 α      in ANC's #10, #5, #6, ...

........................................................................
.............................. CYCLE   23 ..............................
........................................................................

 iter      E             dE          RMSdq      gap      omega  full diag
   1   -152.3781068 -0.152378E+03  0.745E-02    0.37       0.0  T
   2   -152.3778102  0.296584E-03  0.560E-02    0.37       1.0  T
   3   -152.3710292  0.678094E-02  0.171E-01    0.38       1.0  T
   4   -152.3780787 -0.704952E-02  0.212E-02    0.37       1.0  T
   5   -152.3781283 -0.495144E-04  0.734E-03    0.37       1.4  T
   6   -152.3781347 -0.640761E-05  0.322E-03    0.37       3.2  T
   7   -152.3781354 -0.776490E-06  0.128E-03    0.37       8.0  T
   8   -152.3781356 -0.190714E-06  0.551E-04    0.37      18.6  T
   9   -152.3781357 -0.312167E-07  0.200E-04    0.37      51.4  T
     SCC iter.                  ...        0 min,  0.099 sec
     gradient                   ...        0 min,  0.083 sec
 * total energy  :  -149.6279553 Eh     change       -0.1446983E-02 Eh
   gradient norm :     0.0096792 Eh/α   predicted    -0.1113846E-02 ( -23.02%)
   displ. norm   :     0.6333047 α      lambda       -0.1883136E-02
   maximum displ.:     0.3237262 α      in ANC's #10, #5, #6, ...

........................................................................
.............................. CYCLE   24 ..............................
........................................................................

 iter      E             dE          RMSdq      gap      omega  full diag
   1   -152.3780092 -0.152378E+03  0.101E-01    0.37       0.0  T
   2   -152.3775035  0.505758E-03  0.732E-02    0.37       1.0  T
   3   -152.3651180  0.123855E-01  0.231E-01    0.39       1.0  T
   4   -152.3779562 -0.128382E-01  0.252E-02    0.37       1.0  T
   5   -152.3780298 -0.735297E-04  0.938E-03    0.37       1.1  T
   6   -152.3780412 -0.114272E-04  0.428E-03    0.37       2.4  T
   7   -152.3780424 -0.121816E-05  0.161E-03    0.37       6.4  T
   8   -152.3780428 -0.399209E-06  0.709E-04    0.37      14.5  T
   9   -152.3780428 -0.526136E-07  0.321E-04    0.37      32.0  T
     SCC iter.                  ...        0 min,  0.089 sec
     gradient                   ...        0 min,  0.082 sec
 * total energy  :  -149.6296180 Eh     change       -0.1662720E-02 Eh
   gradient norm :     0.0175075 Eh/α   predicted    -0.1319208E-02 ( -20.66%)
   displ. norm   :     0.7553036 α      lambda       -0.2239810E-02
   maximum displ.:     0.3848901 α      in ANC's #10, #5, #6, ...

........................................................................
.............................. CYCLE   25 ..............................
........................................................................

 iter      E             dE          RMSdq      gap      omega  full diag
   1   -152.3759520 -0.152376E+03  0.121E-01    0.36       0.0  T
   2   -152.3756862  0.265799E-03  0.756E-02    0.36       1.0  T
   3   -152.3599980  0.156882E-01  0.256E-01    0.38       1.0  T
   4   -152.3759039 -0.159059E-01  0.251E-02    0.37       1.0  T
   5   -152.3759618 -0.579009E-04  0.104E-02    0.36       1.0  T
   6   -152.3759752 -0.133970E-04  0.504E-03    0.36       2.0  T
   7   -152.3759770 -0.174893E-05  0.176E-03    0.36       5.8  T
   8   -152.3759776 -0.607345E-06  0.681E-04    0.36      15.1  T
   9   -152.3759776 -0.462998E-07  0.344E-04    0.36      29.9  T
     SCC iter.                  ...        0 min,  0.100 sec
     gradient                   ...        0 min,  0.092 sec
 * total energy  :  -149.6316620 Eh     change       -0.2044009E-02 Eh
   gradient norm :     0.0184690 Eh/α   predicted    -0.1758795E-02 ( -13.95%)
   displ. norm   :     0.7925535 α      lambda       -0.2491585E-02
   maximum displ.:     0.4015529 α      in ANC's #10, #5, #6, ...

........................................................................
.............................. CYCLE   26 ..............................
........................................................................

 iter      E             dE          RMSdq      gap      omega  full diag
   1   -152.3757712 -0.152376E+03  0.129E-01    0.36       0.0  T
   2   -152.3754669  0.304231E-03  0.808E-02    0.36       1.0  T
   3   -152.3583865  0.170804E-01  0.268E-01    0.38       1.0  T
   4   -152.3757054 -0.173188E-01  0.284E-02    0.36       1.0  T
   5   -152.3757801 -0.747298E-04  0.113E-02    0.36       1.0  T
   6   -152.3757969 -0.168173E-04  0.529E-03    0.36       1.9  T
   7   -152.3757988 -0.185914E-05  0.196E-03    0.36       5.2  T
   8   -152.3757995 -0.768067E-06  0.706E-04    0.36      14.5  T
   9   -152.3757996 -0.417975E-07  0.362E-04    0.36      28.3  T
     SCC iter.                  ...        0 min,  0.090 sec
     gradient                   ...        0 min,  0.083 sec
 * total energy  :  -149.6338770 Eh     change       -0.2215000E-02 Eh
   gradient norm :     0.0126259 Eh/α   predicted    -0.2028331E-02 (  -8.43%)
   displ. norm   :     0.8120584 α      lambda       -0.2301148E-02
   maximum displ.:     0.4030139 α      in ANC's #10, #5, #6, ...

........................................................................
.............................. CYCLE   27 ..............................
........................................................................

 iter      E             dE          RMSdq      gap      omega  full diag
   1   -152.3781186 -0.152378E+03  0.129E-01    0.35       0.0  T
   2   -152.3778830  0.235655E-03  0.793E-02    0.35       1.0  T
   3   -152.3624116  0.154713E-01  0.255E-01    0.37       1.0  T
   4   -152.3780186 -0.156070E-01  0.315E-02    0.35       1.0  T
   5   -152.3781227 -0.104148E-03  0.119E-02    0.35       1.0  T
   6   -152.3781440 -0.212820E-04  0.475E-03    0.35       2.2  T
   7   -152.3781452 -0.116740E-05  0.195E-03    0.35       5.3  T
   8   -152.3781459 -0.751460E-06  0.654E-04    0.35      15.7  T
   9   -152.3781460 -0.361179E-07  0.314E-04    0.35      32.7  T
     SCC iter.                  ...        0 min,  0.092 sec
     gradient                   ...        0 min,  0.081 sec
 * total energy  :  -149.6359151 Eh     change       -0.2038126E-02 Eh
   gradient norm :     0.0093179 Eh/α   predicted    -0.1909308E-02 (  -6.32%)
   displ. norm   :     0.8433501 α      lambda       -0.2052613E-02
   maximum displ.:     0.4238255 α      in ANC's #5, #10, #6, ...

........................................................................
.............................. CYCLE   28 ..............................
........................................................................

 iter      E             dE          RMSdq      gap      omega  full diag
   1   -152.3782859 -0.152378E+03  0.133E-01    0.34       0.0  T
   2   -152.3778689  0.416973E-03  0.857E-02    0.34       1.0  T
   3   -152.3588293  0.190396E-01  0.284E-01    0.36       1.0  T
   4   -152.3781902 -0.193608E-01  0.301E-02    0.34       1.0  T
   5   -152.3782892 -0.990631E-04  0.130E-02    0.34       1.0  T
   6   -152.3783151 -0.259176E-04  0.519E-03    0.34       2.0  T
   7   -152.3783166 -0.148576E-05  0.223E-03    0.34       4.6  T
   8   -152.3783177 -0.104137E-05  0.787E-04    0.34      13.0  T
   9   -152.3783177 -0.678713E-07  0.369E-04    0.34      27.8  T
  10   -152.3783177 -0.141378E-07  0.187E-04    0.34      54.9  T
     SCC iter.                  ...        0 min,  0.096 sec
     gradient                   ...        0 min,  0.081 sec
 * total energy  :  -149.6377882 Eh     change       -0.1873012E-02 Eh
   gradient norm :     0.0101755 Eh/α   predicted    -0.1756268E-02 (  -6.23%)
   displ. norm   :     0.8270363 α      lambda       -0.1994871E-02
   maximum displ.:     0.4313578 α      in ANC's #5, #10, #6, ...

........................................................................
.............................. CYCLE   29 ..............................
........................................................................

 iter      E             dE          RMSdq      gap      omega  full diag
   1   -152.3855111 -0.152386E+03  0.129E-01    0.33       0.0  T
   2   -152.3849785  0.532591E-03  0.872E-02    0.32       1.0  T
   3   -152.3666255  0.183529E-01  0.280E-01    0.35       1.0  T
   4   -152.3854115 -0.187860E-01  0.306E-02    0.33       1.0  T
   5   -152.3855196 -0.108104E-03  0.131E-02    0.33       1.0  T
   6   -152.3855469 -0.272403E-04  0.473E-03    0.33       2.2  T
   7   -152.3855483 -0.142102E-05  0.201E-03    0.33       5.1  T
   8   -152.3855490 -0.677513E-06  0.889E-04    0.33      11.5  T
   9   -152.3855491 -0.100056E-06  0.336E-04    0.33      30.5  T
     SCC iter.                  ...        0 min,  0.091 sec
     gradient                   ...        0 min,  0.081 sec
 * total energy  :  -149.6395323 Eh     change       -0.1744098E-02 Eh
   gradient norm :     0.0099496 Eh/α   predicted    -0.1679672E-02 (  -3.69%)
   displ. norm   :     0.8875610 α      lambda       -0.1900075E-02
   maximum displ.:     0.4653409 α      in ANC's #5, #10, #6, ...

........................................................................
.............................. CYCLE   30 ..............................
........................................................................

 iter      E             dE          RMSdq      gap      omega  full diag
   1   -152.3787043 -0.152379E+03  0.137E-01    0.32       0.0  T
   2   -152.3781752  0.529114E-03  0.900E-02    0.32       1.0  T
   3   -152.3578560  0.203191E-01  0.294E-01    0.35       1.0  T
   4   -152.3785867 -0.207306E-01  0.292E-02    0.32       1.0  T
   5   -152.3787214 -0.134713E-03  0.116E-02    0.32       1.0  T
   6   -152.3787354 -0.140550E-04  0.669E-03    0.32       1.5  T
   7   -152.3787395 -0.409506E-05  0.248E-03    0.32       4.1  T
   8   -152.3787408 -0.123794E-05  0.885E-04    0.32      11.6  T
   9   -152.3787409 -0.956935E-07  0.382E-04    0.32      26.9  T
  10   -152.3787409 -0.144784E-07  0.190E-04    0.32      53.9  T
     SCC iter.                  ...        0 min,  0.100 sec
     gradient                   ...        0 min,  0.093 sec
 * total energy  :  -149.6411346 Eh     change       -0.1602355E-02 Eh
   gradient norm :     0.0108229 Eh/α   predicted    -0.1698445E-02 (   6.00%)
   displ. norm   :     0.7998227 α      lambda       -0.1647065E-02
   maximum displ.:     0.4449676 α      in ANC's #5, #6, #10, ...

........................................................................
.............................. CYCLE   31 ..............................
........................................................................

 iter      E             dE          RMSdq      gap      omega  full diag
   1   -152.3842806 -0.152384E+03  0.118E-01    0.31       0.0  T
   2   -152.3836519  0.628632E-03  0.850E-02    0.31       1.0  T
   3   -152.3683891  0.152628E-01  0.258E-01    0.34       1.0  T
   4   -152.3842230 -0.158339E-01  0.245E-02    0.32       1.0  T
   5   -152.3843092 -0.861585E-04  0.874E-03    0.31       1.2  T
   6   -152.3843177 -0.851519E-05  0.475E-03    0.31       2.2  T
   7   -152.3843194 -0.169918E-05  0.218E-03    0.31       4.7  T
   8   -152.3843201 -0.748734E-06  0.929E-04    0.31      11.0  T
   9   -152.3843203 -0.116550E-06  0.291E-04    0.31      35.2  T
     SCC iter.                  ...        0 min,  0.092 sec
     gradient                   ...        0 min,  0.081 sec
 * total energy  :  -149.6425964 Eh     change       -0.1461747E-02 Eh
   gradient norm :     0.0086154 Eh/α   predicted    -0.1350361E-02 (  -7.62%)
   displ. norm   :     0.8399900 α      lambda       -0.1547985E-02
   maximum displ.:     0.4785582 α      in ANC's #5, #6, #10, ...

........................................................................
.............................. CYCLE   32 ..............................
........................................................................

 iter      E             dE          RMSdq      gap      omega  full diag
   1   -152.3883280 -0.152388E+03  0.120E-01    0.31       0.0  T
   2   -152.3877982  0.529743E-03  0.831E-02    0.31       1.0  T
   3   -152.3719866  0.158116E-01  0.261E-01    0.33       1.0  T
   4   -152.3882832 -0.162966E-01  0.231E-02    0.31       1.0  T
   5   -152.3883504 -0.671466E-04  0.953E-03    0.31       1.1  T
   6   -152.3883601 -0.971232E-05  0.523E-03    0.31       2.0  T
   7   -152.3883625 -0.244643E-05  0.213E-03    0.31       4.8  T
   8   -152.3883633 -0.754231E-06  0.886E-04    0.31      11.6  T
   9   -152.3883634 -0.953395E-07  0.289E-04    0.31      35.5  T
     SCC iter.                  ...        0 min,  0.091 sec
     gradient                   ...        0 min,  0.092 sec
 * total energy  :  -149.6439492 Eh     change       -0.1352893E-02 Eh
   gradient norm :     0.0080848 Eh/α   predicted    -0.1320110E-02 (  -2.42%)
   displ. norm   :     0.8529280 α      lambda       -0.1460561E-02
   maximum displ.:     0.5024835 α      in ANC's #5, #6, #10, ...

........................................................................
.............................. CYCLE   33 ..............................
........................................................................

 iter      E             dE          RMSdq      gap      omega  full diag
   1   -152.3918858 -0.152392E+03  0.122E-01    0.31       0.0  T
   2   -152.3915465  0.339306E-03  0.798E-02    0.30       1.0  T
   3   -152.3755229  0.160236E-01  0.260E-01    0.33       1.0  T
   4   -152.3918693 -0.163464E-01  0.171E-02    0.31       1.0  T
   5   -152.3919064 -0.371034E-04  0.668E-03    0.31       1.5  T
   6   -152.3919091 -0.270048E-05  0.404E-03    0.31       2.5  T
   7   -152.3919110 -0.191649E-05  0.267E-03    0.31       3.8  T
   8   -152.3919119 -0.932876E-06  0.679E-04    0.31      15.1  T
   9   -152.3919120 -0.334823E-07  0.256E-04    0.31      40.0  T
     SCC iter.                  ...        0 min,  0.088 sec
     gradient                   ...        0 min,  0.084 sec
 * total energy  :  -149.6452399 Eh     change       -0.1290633E-02 Eh
   gradient norm :     0.0075669 Eh/α   predicted    -0.1261553E-02 (  -2.25%)
   displ. norm   :     0.8531972 α      lambda       -0.1286419E-02
   maximum displ.:     0.5148915 α      in ANC's #5, #6, #10, ...

........................................................................
.............................. CYCLE   34 ..............................
........................................................................

 iter      E             dE          RMSdq      gap      omega  full diag
   1   -152.3915967 -0.152392E+03  0.114E-01    0.30       0.0  T
   2   -152.3914286  0.168038E-03  0.711E-02    0.30       1.0  T
   3   -152.3789646  0.124640E-01  0.228E-01    0.32       1.0  T
   4   -152.3915836 -0.126189E-01  0.146E-02    0.30       1.0  T
   5   -152.3916042 -0.206051E-04  0.797E-03    0.30       1.3  T
   6   -152.3916102 -0.601601E-05  0.486E-03    0.30       2.1  T
   7   -152.3916131 -0.295720E-05  0.172E-03    0.30       6.0  T
   8   -152.3916135 -0.356616E-06  0.510E-04    0.30      20.1  T
   9   -152.3916135 -0.124442E-07  0.249E-04    0.30      41.2  T
     SCC iter.                  ...        0 min,  0.091 sec
     gradient                   ...        0 min,  0.080 sec
 * total energy  :  -149.6464286 Eh     change       -0.1188731E-02 Eh
   gradient norm :     0.0063594 Eh/α   predicted    -0.1111433E-02 (  -6.50%)
   displ. norm   :     0.8373684 α      lambda       -0.1287178E-02
   maximum displ.:     0.5263945 α      in ANC's #5, #6, #1, ...

........................................................................
.............................. CYCLE   35 ..............................
........................................................................

 iter      E             dE          RMSdq      gap      omega  full diag
   1   -152.4016747 -0.152402E+03  0.112E-01    0.30       0.0  T
   2   -152.4016434  0.313097E-04  0.662E-02    0.30       1.0  T
   3   -152.3969180  0.472537E-02  0.141E-01    0.31       1.0  T
   4   -152.4014437 -0.452570E-02  0.324E-02    0.30       1.0  T
   5   -152.4016738 -0.230030E-03  0.971E-03    0.30       1.1  T
   6   -152.4016870 -0.132654E-04  0.424E-03    0.30       2.4  T
   7   -152.4016887 -0.171434E-05  0.123E-03    0.30       8.3  T
   8   -152.4016888 -0.101489E-06  0.437E-04    0.30      23.5  T
   9   -152.4016889 -0.127595E-07  0.244E-04    0.30      42.0  T
     SCC iter.                  ...        0 min,  0.086 sec
     gradient                   ...        0 min,  0.080 sec
 * total energy  :  -149.6475297 Eh     change       -0.1101095E-02 Eh
   gradient norm :     0.0086604 Eh/α   predicted    -0.1094867E-02 (  -0.57%)
   displ. norm   :     0.8769057 α      lambda       -0.1317278E-02
   maximum displ.:     0.5521627 α      in ANC's #5, #6, #1, ...

........................................................................
.............................. CYCLE   36 ..............................
........................................................................

 iter      E             dE          RMSdq      gap      omega  full diag
   1   -152.3948062 -0.152395E+03  0.121E-01    0.30       0.0  T
   2   -152.3948030  0.321925E-05  0.710E-02    0.30       1.0  T
   3   -152.3940590  0.743956E-03  0.598E-02    0.30       1.0  T
   4   -152.3941788 -0.119736E-03  0.511E-02    0.30       1.0  T
   5   -152.3947929 -0.614115E-03  0.121E-02    0.30       1.0  T
   6   -152.3948168 -0.239675E-04  0.340E-03    0.30       3.0  T
   7   -152.3948178 -0.979668E-06  0.115E-03    0.30       8.9  T
   8   -152.3948179 -0.821607E-07  0.428E-04    0.30      24.0  T
   9   -152.3948179 -0.782421E-08  0.242E-04    0.30      42.5  T
     SCC iter.                  ...        0 min,  0.085 sec
     gradient                   ...        0 min,  0.078 sec
 * total energy  :  -149.6486699 Eh     change       -0.1140238E-02 Eh
   gradient norm :     0.0072629 Eh/α   predicted    -0.1165110E-02 (   2.18%)
   displ. norm   :     0.8107417 α      lambda       -0.1123819E-02
   maximum displ.:     0.5185907 α      in ANC's #5, #6, #1, ...

........................................................................
.............................. CYCLE   37 ..............................
........................................................................

 iter      E             dE          RMSdq      gap      omega  full diag
   1   -152.3904543 -0.152390E+03  0.103E-01    0.30       0.0  T
   2   -152.3904553 -0.103370E-05  0.597E-02    0.30       1.0  T
   3   -152.3902496  0.205770E-03  0.333E-02    0.29       1.0  T
   4   -152.3902480  0.160066E-05  0.298E-02    0.30       1.0  T
   5   -152.3904304 -0.182406E-03  0.127E-02    0.30       1.0  T
   6   -152.3904608 -0.304239E-04  0.363E-03    0.30       2.8  T
   7   -152.3904622 -0.143810E-05  0.946E-04    0.30      10.8  T
   8   -152.3904623 -0.794930E-07  0.318E-04    0.30      32.2  T
   9   -152.3904623 -0.325483E-08  0.199E-04    0.30      51.4  T
     SCC iter.                  ...        0 min,  0.089 sec
     gradient                   ...        0 min,  0.081 sec
 * total energy  :  -149.6496687 Eh     change       -0.9987970E-03 Eh
   gradient norm :     0.0082099 Eh/α   predicted    -0.9312552E-03 (  -6.76%)
   displ. norm   :     0.8503876 α      lambda       -0.1298013E-02
   maximum displ.:     0.5601177 α      in ANC's #5, #6, #1, ...

........................................................................
.............................. CYCLE   38 ..............................
........................................................................

 iter      E             dE          RMSdq      gap      omega  full diag
   1   -152.3985561 -0.152399E+03  0.107E-01    0.29       0.0  T
   2   -152.3985266  0.295184E-04  0.637E-02    0.30       1.0  T
   3   -152.3921952  0.633143E-02  0.161E-01    0.29       1.0  T
   4   -152.3984461 -0.625089E-02  0.246E-02    0.29       1.0  T
   5   -152.3985604 -0.114321E-03  0.682E-03    0.30       1.5  T
   6   -152.3985655 -0.510385E-05  0.328E-03    0.30       3.1  T
   7   -152.3985671 -0.154554E-05  0.103E-03    0.30       9.9  T
   8   -152.3985671 -0.698369E-07  0.397E-04    0.30      25.8  T
   9   -152.3985671 -0.103955E-07  0.191E-04    0.30      53.7  T
     SCC iter.                  ...        0 min,  0.086 sec
     gradient                   ...        0 min,  0.080 sec
 * total energy  :  -149.6507495 Eh     change       -0.1080739E-02 Eh
   gradient norm :     0.0112006 Eh/α   predicted    -0.1118348E-02 (   3.48%)
   displ. norm   :     0.8366868 α      lambda       -0.1362041E-02
   maximum displ.:     0.5504084 α      in ANC's #5, #6, #1, ...

........................................................................
.............................. CYCLE   39 ..............................
........................................................................

 iter      E             dE          RMSdq      gap      omega  full diag
   1   -152.3960175 -0.152396E+03  0.114E-01    0.29       0.0  T
   2   -152.3959892  0.282967E-04  0.676E-02    0.29       1.0  T
   3   -152.3892317  0.675750E-02  0.165E-01    0.29       1.0  T
   4   -152.3959907 -0.675903E-02  0.146E-02    0.29       1.0  T
   5   -152.3960214 -0.306970E-04  0.575E-03    0.29       1.8  T
   6   -152.3960245 -0.312548E-05  0.347E-03    0.29       3.0  T
   7   -152.3960261 -0.151027E-05  0.105E-03    0.29       9.8  T
   8   -152.3960261 -0.901831E-07  0.353E-04    0.29      29.0  T
   9   -152.3960261 -0.651903E-08  0.216E-04    0.29      47.4  T
     SCC iter.                  ...        0 min,  0.094 sec
     gradient                   ...        0 min,  0.081 sec
 * total energy  :  -149.6518474 Eh     change       -0.1097929E-02 Eh
   gradient norm :     0.0097746 Eh/α   predicted    -0.1157768E-02 (   5.45%)
   displ. norm   :     0.8535715 α      lambda       -0.1177509E-02
   maximum displ.:     0.5605039 α      in ANC's #5, #6, #1, ...

........................................................................
.............................. CYCLE   40 ..............................
........................................................................

 iter      E             dE          RMSdq      gap      omega  full diag
   1   -152.3938136 -0.152394E+03  0.105E-01    0.29       0.0  T
   2   -152.3937840  0.295774E-04  0.627E-02    0.29       1.0  T
   3   -152.3889136  0.487043E-02  0.142E-01    0.30       1.0  T
   4   -152.3937381 -0.482452E-02  0.191E-02    0.29       1.0  T
   5   -152.3938183 -0.801573E-04  0.463E-03    0.29       2.2  T
   6   -152.3938200 -0.177744E-05  0.323E-03    0.29       3.2  T
   7   -152.3938215 -0.143107E-05  0.969E-04    0.29      10.6  T
   8   -152.3938215 -0.673841E-07  0.408E-04    0.29      25.1  T
   9   -152.3938216 -0.187140E-07  0.185E-04    0.29      55.5  T
     SCC iter.                  ...        0 min,  0.086 sec
     gradient                   ...        0 min,  0.082 sec
 * total energy  :  -149.6528470 Eh     change       -0.9996030E-03 Eh
   gradient norm :     0.0093946 Eh/α   predicted    -0.1017720E-02 (   1.81%)
   displ. norm   :     0.8169018 α      lambda       -0.1169098E-02
   maximum displ.:     0.5446637 α      in ANC's #5, #6, #1, ...

........................................................................
.............................. CYCLE   41 ..............................
........................................................................

 iter      E             dE          RMSdq      gap      omega  full diag
   1   -152.3971531 -0.152397E+03  0.928E-02    0.29       0.0  T
   2   -152.3971240  0.290087E-04  0.556E-02    0.29       1.0  T
   3   -152.3929272  0.419680E-02  0.132E-01    0.30       1.0  T
   4   -152.3970208 -0.409360E-02  0.262E-02    0.29       1.0  T
   5   -152.3971516 -0.130771E-03  0.809E-03    0.29       1.3  T
   6   -152.3971610 -0.937823E-05  0.234E-03    0.29       4.4  T
   7   -152.3971615 -0.551235E-06  0.841E-04    0.29      12.2  T
   8   -152.3971616 -0.763547E-07  0.335E-04    0.29      30.6  T
     SCC iter.                  ...        0 min,  0.076 sec
     gradient                   ...        0 min,  0.078 sec
 * total energy  :  -149.6538638 Eh     change       -0.1016817E-02 Eh
   gradient norm :     0.0084729 Eh/α   predicted    -0.9746406E-03 (  -4.15%)
   displ. norm   :     0.8357379 α      lambda       -0.1158273E-02
   maximum displ.:     0.5556313 α      in ANC's #5, #6, #1, ...

........................................................................
.............................. CYCLE   42 ..............................
........................................................................

 iter      E             dE          RMSdq      gap      omega  full diag
   1   -152.4003681 -0.152400E+03  0.954E-02    0.29       0.0  T
   2   -152.4000885  0.279614E-03  0.661E-02    0.29       1.0  T
   3   -152.3890737  0.110148E-01  0.215E-01    0.31       1.0  T
   4   -152.4003244 -0.112507E-01  0.194E-02    0.29       1.0  T
   5   -152.4003707 -0.463298E-04  0.918E-03    0.29       1.1  T
   6   -152.4003833 -0.125461E-04  0.273E-03    0.29       3.8  T
   7   -152.4003843 -0.106613E-05  0.955E-04    0.29      10.7  T
   8   -152.4003844 -0.587590E-07  0.495E-04    0.29      20.7  T
   9   -152.4003844 -0.178803E-07  0.202E-04    0.29      50.7  T
     SCC iter.                  ...        0 min,  0.089 sec
     gradient                   ...        0 min,  0.080 sec
 * total energy  :  -149.6548393 Eh     change       -0.9754827E-03 Eh
   gradient norm :     0.0096247 Eh/α   predicted    -0.9836420E-03 (   0.84%)
   displ. norm   :     0.8537678 α      lambda       -0.1100060E-02
   maximum displ.:     0.5648951 α      in ANC's #5, #6, #1, ...
 * RMSD in coord.:     1.6205354 α      energy gain  -0.3145385E-01 Eh

generating ANC from exact Hessian ...
Using Lindh-Hessian (1995)
 Shifting diagonal of input Hessian by    1.2457947346329126E-002
 Lowest  eigenvalues of input Hessian
    0.010000    0.000000    0.000000    0.000000    0.000000    0.000000
    0.000000    0.012483    0.012523    0.012554    0.012670    0.012836
    0.012988    0.013078    0.013235    0.013418    0.013618    0.013645
 Highest eigenvalues
    2.089638    2.090206    2.130659    2.166202    2.193746    2.209567


........................................................................
.............................. CYCLE   43 ..............................
........................................................................

 iter      E             dE          RMSdq      gap      omega  full diag
   1   -152.4008226 -0.152401E+03  0.958E-02    0.28       0.0  T
   2   -152.4006598  0.162827E-03  0.625E-02    0.29       1.0  T
   3   -152.3907509  0.990889E-02  0.203E-01    0.30       1.0  T
   4   -152.4006548 -0.990394E-02  0.318E-02    0.29       1.0  T
   5   -152.4008241 -0.169230E-03  0.934E-03    0.29       1.1  T
   6   -152.4008374 -0.133443E-04  0.231E-03    0.29       4.4  T
   7   -152.4008380 -0.638345E-06  0.947E-04    0.29      10.8  T
   8   -152.4008381 -0.742317E-07  0.459E-04    0.29      22.3  T
     SCC iter.                  ...        0 min,  0.080 sec
     gradient                   ...        0 min,  0.079 sec
 * total energy  :  -149.6557666 Eh     change       -0.9272936E-03 Eh
   gradient norm :     0.0106017 Eh/α   predicted     0.0000000E+00 (-100.00%)
   displ. norm   :     0.1159053 α      lambda       -0.3492082E-03
   maximum displ.:     0.0677418 α      in ANC's #5, #3, #26, ...

........................................................................
.............................. CYCLE   44 ..............................
........................................................................

 iter      E             dE          RMSdq      gap      omega  full diag
   1   -152.4022119 -0.152402E+03  0.270E-02    0.29       0.0  T
   2   -152.4022109  0.930340E-06  0.160E-02    0.29       1.0  T
   3   -152.4021535  0.574370E-04  0.189E-02    0.29       1.0  T
   4   -152.4022027 -0.492621E-04  0.667E-03    0.29       1.5  T
   5   -152.4022007  0.200566E-05  0.723E-03    0.29       1.4  T
   6   -152.4022132 -0.124673E-04  0.673E-04    0.29      15.2  T
   7   -152.4022132 -0.368999E-07  0.312E-04    0.29      32.9  T
   8   -152.4022132 -0.592743E-08  0.114E-04    0.29      89.9  T
     SCC iter.                  ...        0 min,  0.074 sec
     gradient                   ...        0 min,  0.084 sec
 * total energy  :  -149.6560439 Eh     change       -0.2772625E-03 Eh
   gradient norm :     0.0040411 Eh/α   predicted    -0.1769503E-03 ( -36.18%)
   displ. norm   :     0.3349236 α      lambda       -0.6046372E-03
   maximum displ.:     0.2154489 α      in ANC's #5, #3, #7, ...

........................................................................
.............................. CYCLE   45 ..............................
........................................................................

 iter      E             dE          RMSdq      gap      omega  full diag
   1   -152.4039923 -0.152404E+03  0.610E-02    0.29       0.0  T
   2   -152.4039822  0.100729E-04  0.364E-02    0.29       1.0  T
   3   -152.4023673  0.161492E-02  0.821E-02    0.29       1.0  T
   4   -152.4038999 -0.153258E-02  0.216E-02    0.28       1.0  T
   5   -152.4039913 -0.913962E-04  0.631E-03    0.29       1.6  T
   6   -152.4039978 -0.646357E-05  0.160E-03    0.29       6.4  T
   7   -152.4039980 -0.267151E-06  0.697E-04    0.29      14.7  T
   8   -152.4039981 -0.399776E-07  0.239E-04    0.29      42.9  T
     SCC iter.                  ...        0 min,  0.076 sec
     gradient                   ...        0 min,  0.086 sec
 * total energy  :  -149.6564459 Eh     change       -0.4020310E-03 Eh
   gradient norm :     0.0089913 Eh/α   predicted    -0.3362607E-03 ( -16.36%)
   displ. norm   :     0.3698706 α      lambda       -0.4585003E-03
   maximum displ.:     0.2393401 α      in ANC's #5, #3, #7, ...

........................................................................
.............................. CYCLE   46 ..............................
........................................................................

 iter      E             dE          RMSdq      gap      omega  full diag
   1   -152.4044421 -0.152404E+03  0.581E-02    0.28       0.0  T
   2   -152.4044123  0.297347E-04  0.359E-02    0.29       1.0  T
   3   -152.4012564  0.315597E-02  0.113E-01    0.29       1.0  T
   4   -152.4043986 -0.314224E-02  0.164E-02    0.28       1.0  T
   5   -152.4044411 -0.425150E-04  0.628E-03    0.29       1.6  T
   6   -152.4044473 -0.621138E-05  0.133E-03    0.29       7.7  T
   7   -152.4044475 -0.170622E-06  0.553E-04    0.29      18.6  T
   8   -152.4044475 -0.162366E-07  0.225E-04    0.29      45.6  T
     SCC iter.                  ...        0 min,  0.089 sec
     gradient                   ...        0 min,  0.086 sec
 * total energy  :  -149.6567901 Eh     change       -0.3442384E-03 Eh
   gradient norm :     0.0125042 Eh/α   predicted    -0.2606140E-03 ( -24.29%)
   displ. norm   :     0.4263759 α      lambda       -0.5357072E-03
   maximum displ.:     0.2798119 α      in ANC's #5, #3, #7, ...

........................................................................
.............................. CYCLE   47 ..............................
........................................................................

 iter      E             dE          RMSdq      gap      omega  full diag
   1   -152.4040122 -0.152404E+03  0.594E-02    0.29       0.0  T
   2   -152.4039156  0.966010E-04  0.407E-02    0.29       1.0  T
   3   -152.3995396  0.437603E-02  0.135E-01    0.30       1.0  T
   4   -152.4038907 -0.435112E-02  0.271E-02    0.29       1.0  T
   5   -152.4040137 -0.122956E-03  0.616E-03    0.29       1.7  T
   6   -152.4040205 -0.679067E-05  0.139E-03    0.29       7.4  T
   7   -152.4040207 -0.188177E-06  0.571E-04    0.29      18.0  T
   8   -152.4040207 -0.189347E-07  0.282E-04    0.29      36.4  T
     SCC iter.                  ...        0 min,  0.077 sec
     gradient                   ...        0 min,  0.086 sec
 * total energy  :  -149.6572712 Eh     change       -0.4810984E-03 Eh
   gradient norm :     0.0102595 Eh/α   predicted    -0.3165523E-03 ( -34.20%)
   displ. norm   :     0.5515479 α      lambda       -0.7805863E-03
   maximum displ.:     0.3617635 α      in ANC's #5, #3, #7, ...

........................................................................
.............................. CYCLE   48 ..............................
........................................................................

 iter      E             dE          RMSdq      gap      omega  full diag
   1   -152.4037886 -0.152404E+03  0.724E-02    0.29       0.0  T
   2   -152.4035513  0.237302E-03  0.537E-02    0.29       1.0  T
   3   -152.3978176  0.573369E-02  0.157E-01    0.30       1.0  T
   4   -152.4035032 -0.568562E-02  0.413E-02    0.29       1.0  T
   5   -152.4037938 -0.290572E-03  0.792E-03    0.29       1.3  T
   6   -152.4038056 -0.117583E-04  0.205E-03    0.29       5.0  T
   7   -152.4038061 -0.539399E-06  0.792E-04    0.29      12.9  T
   8   -152.4038061 -0.421822E-07  0.422E-04    0.29      24.3  T
     SCC iter.                  ...        0 min,  0.085 sec
     gradient                   ...        0 min,  0.082 sec
 * total energy  :  -149.6579370 Eh     change       -0.6657683E-03 Eh
   gradient norm :     0.0045087 Eh/α   predicted    -0.5090231E-03 ( -23.54%)
   displ. norm   :     0.6457946 α      lambda       -0.7362771E-03
   maximum displ.:     0.4248608 α      in ANC's #5, #3, #17, ...

........................................................................
.............................. CYCLE   49 ..............................
........................................................................

 iter      E             dE          RMSdq      gap      omega  full diag
   1   -152.4024528 -0.152402E+03  0.816E-02    0.29       0.0  T
   2   -152.4021758  0.276989E-03  0.595E-02    0.29       1.0  T
   3   -152.3947006  0.747517E-02  0.179E-01    0.30       1.0  T
   4   -152.4022125 -0.751194E-02  0.386E-02    0.29       1.0  T
   5   -152.4024568 -0.244222E-03  0.868E-03    0.29       1.2  T
   6   -152.4024705 -0.137791E-04  0.237E-03    0.29       4.3  T
   7   -152.4024714 -0.822730E-06  0.862E-04    0.29      11.9  T
   8   -152.4024714 -0.394709E-07  0.494E-04    0.29      20.8  T
     SCC iter.                  ...        0 min,  0.079 sec
     gradient                   ...        0 min,  0.082 sec
 * total energy  :  -149.6585797 Eh     change       -0.6427285E-03 Eh
   gradient norm :     0.0071187 Eh/α   predicted    -0.5216724E-03 ( -18.83%)
   displ. norm   :     0.6636349 α      lambda       -0.6869737E-03
   maximum displ.:     0.4380541 α      in ANC's #5, #3, #17, ...

........................................................................
.............................. CYCLE   50 ..............................
........................................................................

 iter      E             dE          RMSdq      gap      omega  full diag
   1   -152.4017123 -0.152402E+03  0.803E-02    0.29       0.0  T
   2   -152.4015417  0.170689E-03  0.548E-02    0.29       1.0  T
   3   -152.3936423  0.789931E-02  0.182E-01    0.30       1.0  T
   4   -152.4016193 -0.797697E-02  0.248E-02    0.29       1.0  T
   5   -152.4017145 -0.952056E-04  0.711E-03    0.29       1.4  T
   6   -152.4017229 -0.839045E-05  0.198E-03    0.29       5.2  T
   7   -152.4017234 -0.516848E-06  0.766E-04    0.29      13.4  T
   8   -152.4017235 -0.439186E-07  0.429E-04    0.29      23.9  T
     SCC iter.                  ...        0 min,  0.074 sec
     gradient                   ...        0 min,  0.080 sec
 * total energy  :  -149.6592046 Eh     change       -0.6248307E-03 Eh
   gradient norm :     0.0090847 Eh/α   predicted    -0.4947648E-03 ( -20.82%)
   displ. norm   :     0.6860205 α      lambda       -0.7318213E-03
   maximum displ.:     0.4576112 α      in ANC's #5, #3, #2, ...

........................................................................
.............................. CYCLE   51 ..............................
........................................................................

 iter      E             dE          RMSdq      gap      omega  full diag
   1   -152.4032282 -0.152403E+03  0.803E-02    0.29       0.0  T
   2   -152.4031661  0.620295E-04  0.504E-02    0.29       1.0  T
   3   -152.3969637  0.620248E-02  0.159E-01    0.30       1.0  T
   4   -152.4031804 -0.621674E-02  0.175E-02    0.29       1.0  T
   5   -152.4032296 -0.491646E-04  0.536E-03    0.29       1.9  T
   6   -152.4032337 -0.413453E-05  0.155E-03    0.29       6.6  T
   7   -152.4032339 -0.219168E-06  0.688E-04    0.29      14.9  T
   8   -152.4032340 -0.527966E-07  0.328E-04    0.29      31.2  T
     SCC iter.                  ...        0 min,  0.076 sec
     gradient                   ...        0 min,  0.079 sec
 * total energy  :  -149.6598761 Eh     change       -0.6715703E-03 Eh
   gradient norm :     0.0081562 Eh/α   predicted    -0.5381197E-03 ( -19.87%)
   displ. norm   :     0.7423495 α      lambda       -0.7815566E-03
   maximum displ.:     0.4982925 α      in ANC's #5, #3, #2, ...

........................................................................
.............................. CYCLE   52 ..............................
........................................................................

 iter      E             dE          RMSdq      gap      omega  full diag
   1   -152.4040412 -0.152404E+03  0.850E-02    0.29       0.0  T
   2   -152.4040422 -0.967545E-06  0.499E-02    0.28       1.0  T
   3   -152.4039299  0.112276E-03  0.233E-02    0.29       1.0  T
   4   -152.4038811  0.487664E-04  0.257E-02    0.29       1.0  T
   5   -152.4040427 -0.161542E-03  0.367E-03    0.29       2.8  T
   6   -152.4040441 -0.143560E-05  0.218E-03    0.29       4.7  T
   7   -152.4040446 -0.518848E-06  0.759E-04    0.29      13.5  T
   8   -152.4040447 -0.833203E-07  0.272E-04    0.29      37.7  T
     SCC iter.                  ...        0 min,  0.074 sec
     gradient                   ...        0 min,  0.081 sec
 * total energy  :  -149.6605912 Eh     change       -0.7150846E-03 Eh
   gradient norm :     0.0063941 Eh/α   predicted    -0.6061311E-03 ( -15.24%)
   displ. norm   :     0.7480170 α      lambda       -0.8225054E-03
   maximum displ.:     0.5154360 α      in ANC's #5, #3, #2, ...

........................................................................
.............................. CYCLE   53 ..............................
........................................................................

 iter      E             dE          RMSdq      gap      omega  full diag
   1   -152.4088039 -0.152409E+03  0.867E-02    0.28       0.0  T
   2   -152.4087529  0.509973E-04  0.523E-02    0.28       1.0  T
   3   -152.4003388  0.841409E-02  0.185E-01    0.28       1.0  T
   4   -152.4087879 -0.844909E-02  0.117E-02    0.28       1.0  T
   5   -152.4088079 -0.200720E-04  0.389E-03    0.28       2.6  T
   6   -152.4088093 -0.134618E-05  0.272E-03    0.28       3.8  T
   7   -152.4088101 -0.857074E-06  0.110E-03    0.28       9.3  T
   8   -152.4088103 -0.120140E-06  0.425E-04    0.28      24.1  T
   9   -152.4088103 -0.248429E-07  0.179E-04    0.28      57.2  T
     SCC iter.                  ...        0 min,  0.086 sec
     gradient                   ...        0 min,  0.082 sec
 * total energy  :  -149.6612873 Eh     change       -0.6961166E-03 Eh
   gradient norm :     0.0055386 Eh/α   predicted    -0.6413608E-03 (  -7.87%)
   displ. norm   :     0.8008466 α      lambda       -0.7871473E-03
   maximum displ.:     0.5469335 α      in ANC's #5, #3, #2, ...

........................................................................
.............................. CYCLE   54 ..............................
........................................................................

 iter      E             dE          RMSdq      gap      omega  full diag
   1   -152.4057087 -0.152406E+03  0.921E-02    0.28       0.0  T
   2   -152.4056588  0.498922E-04  0.552E-02    0.28       1.0  T
   3   -152.3970002  0.865863E-02  0.188E-01    0.28       1.0  T
   4   -152.4056859 -0.868572E-02  0.132E-02    0.28       1.0  T
   5   -152.4057145 -0.285834E-04  0.381E-03    0.28       2.7  T
   6   -152.4057150 -0.505148E-06  0.296E-03    0.28       3.5  T
   7   -152.4057159 -0.947037E-06  0.143E-03    0.28       7.2  T
   8   -152.4057162 -0.269289E-06  0.463E-04    0.28      22.2  T
   9   -152.4057162 -0.299747E-07  0.194E-04    0.28      53.0  T
     SCC iter.                  ...        0 min,  0.086 sec
     gradient                   ...        0 min,  0.084 sec
 * total energy  :  -149.6619326 Eh     change       -0.6453064E-03 Eh
   gradient norm :     0.0082310 Eh/α   predicted    -0.6459951E-03 (   0.11%)
   displ. norm   :     0.6947665 α      lambda       -0.6220349E-03
   maximum displ.:     0.4862380 α      in ANC's #5, #3, #2, ...

........................................................................
.............................. CYCLE   55 ..............................
........................................................................

 iter      E             dE          RMSdq      gap      omega  full diag
   1   -152.4058093 -0.152406E+03  0.789E-02    0.27       0.0  T
   2   -152.4057548  0.545267E-04  0.480E-02    0.27       1.0  T
   3   -152.3979814  0.777341E-02  0.179E-01    0.27       1.0  T
   4   -152.4057743 -0.779289E-02  0.149E-02    0.27       1.0  T
   5   -152.4058114 -0.371012E-04  0.461E-03    0.27       2.2  T
   6   -152.4058139 -0.253290E-05  0.209E-03    0.27       4.9  T
   7   -152.4058145 -0.570604E-06  0.726E-04    0.27      14.1  T
   8   -152.4058146 -0.522621E-07  0.333E-04    0.27      30.8  T
     SCC iter.                  ...        0 min,  0.080 sec
     gradient                   ...        0 min,  0.082 sec
 * total energy  :  -149.6624980 Eh     change       -0.5654051E-03 Eh
   gradient norm :     0.0073006 Eh/α   predicted    -0.4611464E-03 ( -18.44%)
   displ. norm   :     0.7081269 α      lambda       -0.6523631E-03
   maximum displ.:     0.5011526 α      in ANC's #5, #3, #2, ...

........................................................................
.............................. CYCLE   56 ..............................
........................................................................

 iter      E             dE          RMSdq      gap      omega  full diag
   1   -152.4085001 -0.152409E+03  0.799E-02    0.27       0.0  T
   2   -152.4084772  0.228223E-04  0.475E-02    0.27       1.0  T
   3   -152.4048826  0.359460E-02  0.124E-01    0.27       1.0  T
   4   -152.4083119 -0.342930E-02  0.297E-02    0.27       1.0  T
   5   -152.4085015 -0.189582E-03  0.571E-03    0.27       1.8  T
   6   -152.4085059 -0.435586E-05  0.179E-03    0.27       5.7  T
   7   -152.4085062 -0.324346E-06  0.759E-04    0.27      13.5  T
   8   -152.4085062 -0.445585E-07  0.335E-04    0.27      30.6  T
     SCC iter.                  ...        0 min,  0.088 sec
     gradient                   ...        0 min,  0.083 sec
 * total energy  :  -149.6630746 Eh     change       -0.5765317E-03 Eh
   gradient norm :     0.0041000 Eh/α   predicted    -0.4897491E-03 ( -15.05%)
   displ. norm   :     0.7893910 α      lambda       -0.6253396E-03
   maximum displ.:     0.5558246 α      in ANC's #5, #3, #2, ...

........................................................................
.............................. CYCLE   57 ..............................
........................................................................

 iter      E             dE          RMSdq      gap      omega  full diag
   1   -152.4080969 -0.152408E+03  0.876E-02    0.27       0.0  T
   2   -152.4080849  0.119824E-04  0.521E-02    0.27       1.0  T
   3   -152.4065913  0.149355E-02  0.812E-02    0.27       1.0  T
   4   -152.4077885 -0.119719E-02  0.376E-02    0.27       1.0  T
   5   -152.4080943 -0.305743E-03  0.717E-03    0.27       1.4  T
   6   -152.4081037 -0.940331E-05  0.184E-03    0.27       5.6  T
   7   -152.4081039 -0.214335E-06  0.796E-04    0.27      12.9  T
   8   -152.4081040 -0.865743E-07  0.276E-04    0.27      37.2  T
     SCC iter.                  ...        0 min,  0.078 sec
     gradient                   ...        0 min,  0.084 sec
 * total energy  :  -149.6636551 Eh     change       -0.5804931E-03 Eh
   gradient norm :     0.0040456 Eh/α   predicted    -0.5075086E-03 ( -12.57%)
   displ. norm   :     0.8110351 α      lambda       -0.6418521E-03
   maximum displ.:     0.5707476 α      in ANC's #5, #3, #4, ...

........................................................................
.............................. CYCLE   58 ..............................
........................................................................

 iter      E             dE          RMSdq      gap      omega  full diag
   1   -152.4091442 -0.152409E+03  0.895E-02    0.27       0.0  T
   2   -152.4090415  0.102727E-03  0.568E-02    0.26       1.0  T
   3   -152.4006833  0.835820E-02  0.186E-01    0.28       1.0  T
   4   -152.4090823 -0.839898E-02  0.209E-02    0.27       1.0  T
   5   -152.4091418 -0.595491E-04  0.872E-03    0.27       1.2  T
   6   -152.4091547 -0.128729E-04  0.230E-03    0.27       4.5  T
   7   -152.4091551 -0.387981E-06  0.935E-04    0.27      11.0  T
   8   -152.4091552 -0.111721E-06  0.391E-04    0.27      26.3  T
     SCC iter.                  ...        0 min,  0.076 sec
     gradient                   ...        0 min,  0.079 sec
 * total energy  :  -149.6642571 Eh     change       -0.6019863E-03 Eh
   gradient norm :     0.0053248 Eh/α   predicted    -0.5320251E-03 ( -11.62%)
   displ. norm   :     0.8532541 α      lambda       -0.6856951E-03
   maximum displ.:     0.5965771 α      in ANC's #5, #3, #4, ...

........................................................................
.............................. CYCLE   59 ..............................
........................................................................

 iter      E             dE          RMSdq      gap      omega  full diag
   1   -152.4105399 -0.152411E+03  0.944E-02    0.27       0.0  T
   2   -152.4102247  0.315215E-03  0.665E-02    0.26       1.0  T
   3   -152.3995149  0.107097E-01  0.213E-01    0.29       1.0  T
   4   -152.4104865 -0.109716E-01  0.192E-02    0.27       1.0  T
   5   -152.4105435 -0.569972E-04  0.965E-03    0.27       1.1  T
   6   -152.4105573 -0.138216E-04  0.360E-03    0.27       2.9  T
   7   -152.4105586 -0.126929E-05  0.125E-03    0.27       8.2  T
   8   -152.4105588 -0.198925E-06  0.580E-04    0.27      17.7  T
   9   -152.4105588 -0.399913E-07  0.228E-04    0.27      45.0  T
     SCC iter.                  ...        0 min,  0.086 sec
     gradient                   ...        0 min,  0.077 sec
 * total energy  :  -149.6649028 Eh     change       -0.6457152E-03 Eh
   gradient norm :     0.0059754 Eh/α   predicted    -0.5924563E-03 (  -8.25%)
   displ. norm   :     0.8685380 α      lambda       -0.7143843E-03
   maximum displ.:     0.5984638 α      in ANC's #5, #3, #4, ...

........................................................................
.............................. CYCLE   60 ..............................
........................................................................

 iter      E             dE          RMSdq      gap      omega  full diag
   1   -152.4124345 -0.152412E+03  0.981E-02    0.27       0.0  T
   2   -152.4118601  0.574391E-03  0.755E-02    0.26       1.0  T
   3   -152.4017845  0.100756E-01  0.211E-01    0.29       1.0  T
   4   -152.4123761 -0.105916E-01  0.202E-02    0.27       1.0  T
   5   -152.4124580 -0.818114E-04  0.599E-03    0.27       1.7  T
   6   -152.4124601 -0.212083E-05  0.440E-03    0.27       2.3  T
   7   -152.4124615 -0.145523E-05  0.228E-03    0.27       4.5  T
   8   -152.4124624 -0.856064E-06  0.824E-04    0.27      12.5  T
   9   -152.4124625 -0.844870E-07  0.317E-04    0.27      32.3  T
     SCC iter.                  ...        0 min,  0.082 sec
     gradient                   ...        0 min,  0.090 sec
 * total energy  :  -149.6655659 Eh     change       -0.6631207E-03 Eh
   gradient norm :     0.0048649 Eh/α   predicted    -0.6266456E-03 (  -5.50%)
   displ. norm   :     0.8812871 α      lambda       -0.6786841E-03
   maximum displ.:     0.6018648 α      in ANC's #5, #3, #4, ...

........................................................................
.............................. CYCLE   61 ..............................
........................................................................

 iter      E             dE          RMSdq      gap      omega  full diag
   1   -152.4124272 -0.152412E+03  0.102E-01    0.27       0.0  T
   2   -152.4118152  0.612029E-03  0.777E-02    0.26       1.0  T
   3   -152.4011539  0.106613E-01  0.217E-01    0.29       1.0  T
   4   -152.4123698 -0.112159E-01  0.207E-02    0.27       1.0  T
   5   -152.4124512 -0.813736E-04  0.670E-03    0.27       1.5  T
   6   -152.4124496  0.159419E-05  0.624E-03    0.27       1.6  T
   7   -152.4124557 -0.608294E-05  0.244E-03    0.27       4.2  T
   8   -152.4124565 -0.818197E-06  0.671E-04    0.27      15.3  T
   9   -152.4124565 -0.217583E-07  0.384E-04    0.27      26.7  T
     SCC iter.                  ...        0 min,  0.087 sec
     gradient                   ...        0 min,  0.079 sec
 * total energy  :  -149.6661900 Eh     change       -0.6241041E-03 Eh
   gradient norm :     0.0035438 Eh/α   predicted    -0.6029036E-03 (  -3.40%)
   displ. norm   :     0.8706638 α      lambda       -0.6291241E-03
   maximum displ.:     0.5850680 α      in ANC's #5, #3, #4, ...

........................................................................
.............................. CYCLE   62 ..............................
........................................................................

 iter      E             dE          RMSdq      gap      omega  full diag
   1   -152.4140471 -0.152414E+03  0.102E-01    0.27       0.0  T
   2   -152.4135450  0.502105E-03  0.739E-02    0.27       1.0  T
   3   -152.4025113  0.110338E-01  0.219E-01    0.29       1.0  T
   4   -152.4140057 -0.114944E-01  0.191E-02    0.27       1.0  T
   5   -152.4140633 -0.576682E-04  0.871E-03    0.27       1.2  T
   6   -152.4140641 -0.782340E-06  0.734E-03    0.27       1.4  T
   7   -152.4140724 -0.829244E-05  0.208E-03    0.27       4.9  T
   8   -152.4140731 -0.668668E-06  0.656E-04    0.27      15.6  T
   9   -152.4140731 -0.255266E-07  0.367E-04    0.27      28.0  T
     SCC iter.                  ...        0 min,  0.082 sec
     gradient                   ...        0 min,  0.086 sec
 * total energy  :  -149.6667563 Eh     change       -0.5662942E-03 Eh
   gradient norm :     0.0037464 Eh/α   predicted    -0.5530194E-03 (  -2.34%)
   displ. norm   :     0.9085774 α      lambda       -0.5956945E-03
   maximum displ.:     0.6251835 α      in ANC's #5, #3, #4, ...

........................................................................
.............................. CYCLE   63 ..............................
........................................................................

 iter      E             dE          RMSdq      gap      omega  full diag
   1   -152.4086830 -0.152409E+03  0.105E-01    0.27       0.0  T
   2   -152.4084854  0.197600E-03  0.668E-02    0.27       1.0  T
   3   -152.3968658  0.116196E-01  0.220E-01    0.29       1.0  T
   4   -152.4086731 -0.118073E-01  0.127E-02    0.27       1.0  T
   5   -152.4086961 -0.229980E-04  0.528E-03    0.27       1.9  T
   6   -152.4086970 -0.895040E-06  0.237E-03    0.27       4.3  T
   7   -152.4086979 -0.954877E-06  0.828E-04    0.27      12.4  T
   8   -152.4086980 -0.453587E-07  0.653E-04    0.27      15.7  T
     SCC iter.                  ...        0 min,  0.075 sec
     gradient                   ...        0 min,  0.086 sec
 * total energy  :  -149.6672743 Eh     change       -0.5179986E-03 Eh
   gradient norm :     0.0066337 Eh/α   predicted    -0.5437263E-03 (   4.97%)
   displ. norm   :     0.8112209 α      lambda       -0.5943495E-03
   maximum displ.:     0.5249441 α      in ANC's #5, #3, #4, ...

........................................................................
.............................. CYCLE   64 ..............................
........................................................................

 iter      E             dE          RMSdq      gap      omega  full diag
   1   -152.4143917 -0.152414E+03  0.961E-02    0.27       0.0  T
   2   -152.4142890  0.102657E-03  0.568E-02    0.27       1.0  T
   3   -152.4065237  0.776529E-02  0.180E-01    0.28       1.0  T
   4   -152.4143942 -0.787044E-02  0.108E-02    0.27       1.0  T
   5   -152.4144013 -0.713473E-05  0.601E-03    0.27       1.7  T
   6   -152.4144034 -0.211413E-05  0.259E-03    0.27       4.0  T
   7   -152.4144038 -0.393421E-06  0.189E-03    0.27       5.4  T
   8   -152.4144043 -0.496916E-06  0.603E-04    0.27      17.0  T
   9   -152.4144043 -0.474200E-07  0.222E-04    0.27      46.2  T
     SCC iter.                  ...        0 min,  0.091 sec
     gradient                   ...        0 min,  0.081 sec
 * total energy  :  -149.6677717 Eh     change       -0.4973587E-03 Eh
   gradient norm :     0.0078559 Eh/α   predicted    -0.4927405E-03 (  -0.93%)
   displ. norm   :     0.8183124 α      lambda       -0.5832961E-03
   maximum displ.:     0.5501173 α      in ANC's #5, #3, #4, ...

........................................................................
.............................. CYCLE   65 ..............................
........................................................................

 iter      E             dE          RMSdq      gap      omega  full diag
   1   -152.4122748 -0.152412E+03  0.937E-02    0.27       0.0  T
   2   -152.4122555  0.192127E-04  0.537E-02    0.27       1.0  T
   3   -152.4093199  0.293565E-02  0.110E-01    0.27       1.0  T
   4   -152.4122349 -0.291501E-02  0.171E-02    0.27       1.0  T
   5   -152.4122683 -0.333511E-04  0.978E-03    0.27       1.0  T
   6   -152.4122775 -0.928209E-05  0.504E-03    0.27       2.0  T
   7   -152.4122817 -0.412675E-05  0.660E-04    0.27      15.6  T
   8   -152.4122817 -0.506730E-07  0.264E-04    0.27      38.8  T
   9   -152.4122817 -0.329874E-08  0.151E-04    0.27      67.9  T
     SCC iter.                  ...        0 min,  0.087 sec
     gradient                   ...        0 min,  0.082 sec
 * total energy  :  -149.6682539 Eh     change       -0.4822466E-03 Eh
   gradient norm :     0.0052072 Eh/α   predicted    -0.4869476E-03 (   0.97%)
   displ. norm   :     0.8274105 α      lambda       -0.4975612E-03
   maximum displ.:     0.5469623 α      in ANC's #5, #3, #4, ...

........................................................................
.............................. CYCLE   66 ..............................
........................................................................

 iter      E             dE          RMSdq      gap      omega  full diag
   1   -152.4122954 -0.152412E+03  0.965E-02    0.27       0.0  T
   2   -152.4122804  0.150005E-04  0.541E-02    0.26       1.0  T
   3   -152.4097351  0.254523E-02  0.103E-01    0.27       1.0  T
   4   -152.4122688 -0.253362E-02  0.146E-02    0.27       1.0  T
   5   -152.4122883 -0.195848E-04  0.103E-02    0.27       1.0  T
   6   -152.4122978 -0.949085E-05  0.556E-03    0.27       1.8  T
   7   -152.4123028 -0.496440E-05  0.696E-04    0.27      14.7  T
   8   -152.4123028 -0.517251E-07  0.259E-04    0.27      39.7  T
   9   -152.4123029 -0.385543E-08  0.134E-04    0.27      76.5  T
     SCC iter.                  ...        0 min,  0.086 sec
     gradient                   ...        0 min,  0.083 sec
 * total energy  :  -149.6686977 Eh     change       -0.4437675E-03 Eh
   gradient norm :     0.0053726 Eh/α   predicted    -0.4191013E-03 (  -5.56%)
   displ. norm   :     0.7932257 α      lambda       -0.5161242E-03
   maximum displ.:     0.5082698 α      in ANC's #5, #3, #4, ...
 * RMSD in coord.:     1.5818018 α      energy gain  -0.1385835E-01 Eh

generating ANC from exact Hessian ...
Using Lindh-Hessian (1995)
 Shifting diagonal of input Hessian by    9.9746514098336091E-003
 Lowest  eigenvalues of input Hessian
    0.000000    0.000000    0.000000    0.000000    0.000000    0.000000
    0.010000    0.010022    0.010029    0.010120    0.010383    0.010415
    0.010557    0.010659    0.010780    0.010934    0.010996    0.011226
 Highest eigenvalues
    2.090662    2.099816    2.132353    2.168715    2.193497    2.209548


........................................................................
.............................. CYCLE   67 ..............................
........................................................................

 iter      E             dE          RMSdq      gap      omega  full diag
   1   -152.4167454 -0.152417E+03  0.922E-02    0.27       0.0  T
   2   -152.4167426  0.277863E-05  0.511E-02    0.26       1.0  T
   3   -152.4164351  0.307557E-03  0.443E-02    0.27       1.0  T
   4   -152.4167040 -0.268875E-03  0.155E-02    0.26       1.0  T
   5   -152.4166360  0.679575E-04  0.224E-02    0.27       1.0  T
   6   -152.4167492 -0.113183E-03  0.479E-03    0.26       2.1  T
   7   -152.4167530 -0.384460E-05  0.780E-04    0.26      13.2  T
   8   -152.4167531 -0.891634E-07  0.259E-04    0.26      39.6  T
   9   -152.4167531 -0.445334E-08  0.137E-04    0.26      75.1  T
     SCC iter.                  ...        0 min,  0.087 sec
     gradient                   ...        0 min,  0.082 sec
 * total energy  :  -149.6691285 Eh     change       -0.4308638E-03 Eh
   gradient norm :     0.0045801 Eh/α   predicted     0.0000000E+00 (-100.00%)
   displ. norm   :     0.0793530 α      lambda       -0.1116078E-03
   maximum displ.:     0.0370282 α      in ANC's #4, #7, #20, ...

........................................................................
.............................. CYCLE   68 ..............................
........................................................................

 iter      E             dE          RMSdq      gap      omega  full diag
   1   -152.4174723 -0.152417E+03  0.199E-02    0.26       0.0  T
   2   -152.4174610  0.112512E-04  0.130E-02    0.26       1.0  T
   3   -152.4170460  0.415072E-03  0.426E-02    0.27       1.0  T
   4   -152.4174542 -0.408199E-03  0.991E-03    0.26       1.0  T
   5   -152.4174729 -0.187351E-04  0.218E-03    0.26       4.7  T
   6   -152.4174733 -0.430020E-06  0.100E-03    0.26      10.3  T
   7   -152.4174734 -0.674683E-07  0.326E-04    0.26      31.5  T
   8   -152.4174734 -0.136258E-07  0.815E-05    0.26     125.9  T
     SCC iter.                  ...        0 min,  0.077 sec
     gradient                   ...        0 min,  0.084 sec
 * total energy  :  -149.6692241 Eh     change       -0.9552886E-04 Eh
   gradient norm :     0.0023053 Eh/α   predicted    -0.5638836E-04 ( -40.97%)
   displ. norm   :     0.2665586 α      lambda       -0.2592776E-03
   maximum displ.:     0.1234400 α      in ANC's #4, #7, #20, ...

........................................................................
.............................. CYCLE   69 ..............................
........................................................................

 iter      E             dE          RMSdq      gap      omega  full diag
   1   -152.4182717 -0.152418E+03  0.640E-02    0.27       0.0  T
   2   -152.4182116  0.600543E-04  0.378E-02    0.26       1.0  T
   3   -152.4147478  0.346380E-02  0.122E-01    0.27       1.0  T
   4   -152.4181995 -0.345170E-02  0.209E-02    0.27       1.0  T
   5   -152.4182727 -0.731164E-04  0.735E-03    0.27       1.4  T
   6   -152.4182784 -0.572190E-05  0.327E-03    0.26       3.1  T
   7   -152.4182793 -0.962854E-06  0.816E-04    0.26      12.6  T
   8   -152.4182794 -0.811567E-07  0.251E-04    0.27      40.8  T
     SCC iter.                  ...        0 min,  0.081 sec
     gradient                   ...        0 min,  0.085 sec
 * total energy  :  -149.6694068 Eh     change       -0.1827326E-03 Eh
   gradient norm :     0.0038173 Eh/α   predicted    -0.1388591E-03 ( -24.01%)
   displ. norm   :     0.2649613 α      lambda       -0.1614090E-03
   maximum displ.:     0.1306185 α      in ANC's #4, #7, #3, ...

........................................................................
.............................. CYCLE   70 ..............................
........................................................................

 iter      E             dE          RMSdq      gap      omega  full diag
   1   -152.4179559 -0.152418E+03  0.598E-02    0.26       0.0  T
   2   -152.4179365  0.193854E-04  0.326E-02    0.26       1.0  T
   3   -152.4158940  0.204252E-02  0.925E-02    0.27       1.0  T
   4   -152.4179490 -0.205507E-02  0.924E-03    0.27       1.1  T
   5   -152.4179524 -0.332992E-05  0.763E-03    0.26       1.3  T
   6   -152.4179590 -0.662167E-05  0.373E-03    0.26       2.8  T
   7   -152.4179607 -0.166972E-05  0.569E-04    0.26      18.0  T
   8   -152.4179607 -0.293439E-07  0.228E-04    0.26      45.0  T
   9   -152.4179607 -0.470641E-08  0.865E-05    0.26     118.6  T
     SCC iter.                  ...        0 min,  0.089 sec
     gradient                   ...        0 min,  0.088 sec
 * total energy  :  -149.6695393 Eh     change       -0.1324653E-03 Eh
   gradient norm :     0.0055295 Eh/α   predicted    -0.8637056E-04 ( -34.80%)
   displ. norm   :     0.3615269 α      lambda       -0.2295934E-03
   maximum displ.:     0.1814040 α      in ANC's #4, #7, #3, ...

........................................................................
.............................. CYCLE   71 ..............................
........................................................................

 iter      E             dE          RMSdq      gap      omega  full diag
   1   -152.4171013 -0.152417E+03  0.768E-02    0.26       0.0  T
   2   -152.4170982  0.301648E-05  0.401E-02    0.26       1.0  T
   3   -152.4160962  0.100202E-02  0.647E-02    0.27       1.0  T
   4   -152.4170740 -0.977795E-03  0.140E-02    0.26       1.0  T
   5   -152.4171068 -0.328227E-04  0.531E-03    0.26       1.9  T
   6   -152.4171066  0.231174E-06  0.361E-03    0.26       2.8  T
   7   -152.4171086 -0.196264E-05  0.101E-03    0.26      10.1  T
   8   -152.4171087 -0.145279E-06  0.318E-04    0.26      32.3  T
   9   -152.4171087 -0.988163E-08  0.112E-04    0.26      91.2  T
     SCC iter.                  ...        0 min,  0.092 sec
     gradient                   ...        0 min,  0.093 sec
 * total energy  :  -149.6697407 Eh     change       -0.2014865E-03 Eh
   gradient norm :     0.0058674 Eh/α   predicted    -0.1298024E-03 ( -35.58%)
   displ. norm   :     0.5218945 α      lambda       -0.3765898E-03
   maximum displ.:     0.2693512 α      in ANC's #4, #7, #3, ...

........................................................................
.............................. CYCLE   72 ..............................
........................................................................

 iter      E             dE          RMSdq      gap      omega  full diag
   1   -152.4154554 -0.152415E+03  0.104E-01    0.26       0.0  T
   2   -152.4154647 -0.931707E-05  0.540E-02    0.26       1.0  T
   3   -152.4153785  0.861538E-04  0.268E-02    0.26       1.0  T
   4   -152.4153890 -0.104240E-04  0.206E-02    0.26       1.0  T
   5   -152.4153198  0.691205E-04  0.255E-02    0.26       1.0  T
   6   -152.4154550 -0.135119E-03  0.916E-03    0.26       1.1  T
   7   -152.4154706 -0.156661E-04  0.959E-04    0.26      10.7  T
   8   -152.4154707 -0.117322E-06  0.418E-04    0.26      24.6  T
   9   -152.4154708 -0.167437E-07  0.163E-04    0.26      62.8  T
     SCC iter.                  ...        0 min,  0.094 sec
     gradient                   ...        0 min,  0.083 sec
 * total energy  :  -149.6700644 Eh     change       -0.3236292E-03 Eh
   gradient norm :     0.0057871 Eh/α   predicted    -0.2396032E-03 ( -25.96%)
   displ. norm   :     0.5951499 α      lambda       -0.4697601E-03
   maximum displ.:     0.3135335 α      in ANC's #4, #7, #3, ...

........................................................................
.............................. CYCLE   73 ..............................
........................................................................

 iter      E             dE          RMSdq      gap      omega  full diag
   1   -152.4145755 -0.152415E+03  0.111E-01    0.26       0.0  T
   2   -152.4145758 -0.299444E-06  0.581E-02    0.26       1.0  T
   3   -152.4132087  0.136711E-02  0.796E-02    0.26       1.0  T
   4   -152.4142093 -0.100059E-02  0.411E-02    0.26       1.0  T
   5   -152.4145552 -0.345968E-03  0.161E-02    0.26       1.0  T
   6   -152.4145850 -0.297973E-04  0.780E-03    0.26       1.3  T
   7   -152.4145950 -0.100080E-04  0.947E-04    0.26      10.8  T
   8   -152.4145951 -0.642219E-07  0.488E-04    0.26      21.0  T
   9   -152.4145951 -0.239347E-07  0.186E-04    0.26      55.0  T
     SCC iter.                  ...        0 min,  0.087 sec
     gradient                   ...        0 min,  0.089 sec
 * total energy  :  -149.6704554 Eh     change       -0.3909964E-03 Eh
   gradient norm :     0.0063970 Eh/α   predicted    -0.3180754E-03 ( -18.65%)
   displ. norm   :     0.6198176 α      lambda       -0.4683147E-03
   maximum displ.:     0.3301984 α      in ANC's #4, #7, #3, ...

........................................................................
.............................. CYCLE   74 ..............................
........................................................................

 iter      E             dE          RMSdq      gap      omega  full diag
   1   -152.4145243 -0.152415E+03  0.111E-01    0.26       0.0  T
   2   -152.4145133  0.110067E-04  0.586E-02    0.25       1.0  T
   3   -152.4114228  0.309048E-02  0.115E-01    0.26       1.0  T
   4   -152.4143624 -0.293951E-02  0.301E-02    0.26       1.0  T
   5   -152.4145197 -0.157306E-03  0.139E-02    0.25       1.0  T
   6   -152.4145307 -0.110125E-04  0.890E-03    0.25       1.2  T
   7   -152.4145446 -0.139209E-04  0.114E-03    0.26       9.0  T
   8   -152.4145447 -0.106312E-06  0.555E-04    0.25      18.5  T
   9   -152.4145447 -0.365889E-07  0.210E-04    0.26      48.9  T
     SCC iter.                  ...        0 min,  0.086 sec
     gradient                   ...        0 min,  0.079 sec
 * total energy  :  -149.6708488 Eh     change       -0.3933970E-03 Eh
   gradient norm :     0.0076127 Eh/α   predicted    -0.3241148E-03 ( -17.61%)
   displ. norm   :     0.6010405 α      lambda       -0.4847587E-03
   maximum displ.:     0.3260179 α      in ANC's #4, #7, #3, ...

........................................................................
.............................. CYCLE   75 ..............................
........................................................................

 iter      E             dE          RMSdq      gap      omega  full diag
   1   -152.4176652 -0.152418E+03  0.105E-01    0.25       0.0  T
   2   -152.4176476  0.175777E-04  0.554E-02    0.25       1.0  T
   3   -152.4138428  0.380479E-02  0.126E-01    0.25       1.0  T
   4   -152.4176150 -0.377223E-02  0.201E-02    0.26       1.0  T
   5   -152.4176761 -0.610764E-04  0.883E-03    0.25       1.2  T
   6   -152.4176701  0.600187E-05  0.841E-03    0.25       1.2  T
   7   -152.4176825 -0.123445E-04  0.146E-03    0.25       7.0  T
   8   -152.4176827 -0.245747E-06  0.496E-04    0.25      20.7  T
   9   -152.4176827 -0.252985E-07  0.218E-04    0.25      47.1  T
     SCC iter.                  ...        0 min,  0.094 sec
     gradient                   ...        0 min,  0.083 sec
 * total energy  :  -149.6712259 Eh     change       -0.3771564E-03 Eh
   gradient norm :     0.0067145 Eh/α   predicted    -0.3299411E-03 ( -12.52%)
   displ. norm   :     0.7744671 α      lambda       -0.5234386E-03
   maximum displ.:     0.4172937 α      in ANC's #4, #7, #3, ...

........................................................................
.............................. CYCLE   76 ..............................
........................................................................

 iter      E             dE          RMSdq      gap      omega  full diag
   1   -152.4122520 -0.152412E+03  0.143E-01    0.25       0.0  T
   2   -152.4122567 -0.471341E-05  0.739E-02    0.25       1.0  T
   3   -152.4099321  0.232462E-02  0.985E-02    0.25       1.0  T
   4   -152.4120598 -0.212773E-02  0.336E-02    0.26       1.0  T
   5   -152.4122255 -0.165706E-03  0.203E-02    0.25       1.0  T
   6   -152.4122795 -0.540181E-04  0.822E-03    0.25       1.2  T
   7   -152.4122852 -0.566948E-05  0.204E-03    0.25       5.0  T
   8   -152.4122857 -0.483780E-06  0.688E-04    0.25      14.9  T
   9   -152.4122857 -0.503755E-07  0.320E-04    0.25      32.1  T
     SCC iter.                  ...        0 min,  0.094 sec
     gradient                   ...        0 min,  0.081 sec
 * total energy  :  -149.6713925 Eh     change       -0.1665605E-03 Eh
   gradient norm :     0.0147429 Eh/α   predicted    -0.4187077E-03 ( 151.38%)
   displ. norm   :     0.2067854 α      lambda       -0.6281627E-03
   maximum displ.:     0.1119141 α      in ANC's #4, #3, #7, ...

........................................................................
.............................. CYCLE   77 ..............................
........................................................................

 iter      E             dE          RMSdq      gap      omega  full diag
   1   -152.4197810 -0.152420E+03  0.447E-02    0.25       0.0  T
   2   -152.4197809  0.418814E-07  0.247E-02    0.25       1.0  T
   3   -152.4194957  0.285233E-03  0.358E-02    0.26       1.0  T
   4   -152.4196905 -0.194832E-03  0.203E-02    0.25       1.0  T
   5   -152.4197801 -0.895201E-04  0.597E-03    0.25       1.7  T
   6   -152.4197847 -0.467391E-05  0.286E-03    0.25       3.6  T
   7   -152.4197857 -0.956343E-06  0.917E-04    0.25      11.2  T
   8   -152.4197858 -0.660391E-07  0.352E-04    0.25      29.2  T
     SCC iter.                  ...        0 min,  0.075 sec
     gradient                   ...        0 min,  0.093 sec
 * total energy  :  -149.6717878 Eh     change       -0.3952910E-03 Eh
   gradient norm :     0.0048806 Eh/α   predicted    -0.3275134E-03 ( -17.15%)
   displ. norm   :     0.5249880 α      lambda       -0.3477901E-03
   maximum displ.:     0.3103736 α      in ANC's #4, #7, #3, ...

........................................................................
.............................. CYCLE   78 ..............................
........................................................................

 iter      E             dE          RMSdq      gap      omega  full diag
   1   -152.4200575 -0.152420E+03  0.886E-02    0.25       0.0  T
   2   -152.4200592 -0.166128E-05  0.464E-02    0.24       1.0  T
   3   -152.4194608  0.598363E-03  0.510E-02    0.26       1.0  T
   4   -152.4199721 -0.511211E-03  0.211E-02    0.25       1.0  T
   5   -152.4200475 -0.754167E-04  0.111E-02    0.24       1.0  T
   6   -152.4200630 -0.155779E-04  0.577E-03    0.24       1.8  T
   7   -152.4200673 -0.427831E-05  0.104E-03    0.25       9.9  T
   8   -152.4200675 -0.136058E-06  0.331E-04    0.25      31.0  T
   9   -152.4200675 -0.124706E-07  0.153E-04    0.25      67.1  T
     SCC iter.                  ...        0 min,  0.092 sec
     gradient                   ...        0 min,  0.084 sec
 * total energy  :  -149.6720832 Eh     change       -0.2953819E-03 Eh
   gradient norm :     0.0043020 Eh/α   predicted    -0.2218260E-03 ( -24.90%)
   displ. norm   :     0.6833102 α      lambda       -0.4441519E-03
   maximum displ.:     0.4106003 α      in ANC's #4, #3, #7, ...

........................................................................
.............................. CYCLE   79 ..............................
........................................................................

 iter      E             dE          RMSdq      gap      omega  full diag
   1   -152.4197639 -0.152420E+03  0.115E-01    0.25       0.0  T
   2   -152.4197347  0.292352E-04  0.622E-02    0.24       1.0  T
   3   -152.4155274  0.420727E-02  0.132E-01    0.26       1.0  T
   4   -152.4197526 -0.422517E-02  0.152E-02    0.25       1.0  T
   5   -152.4197765 -0.239064E-04  0.772E-03    0.24       1.3  T
   6   -152.4197789 -0.237082E-05  0.416E-03    0.24       2.5  T
   7   -152.4197813 -0.241546E-05  0.216E-03    0.24       4.8  T
   8   -152.4197820 -0.681087E-06  0.458E-04    0.24      22.4  T
   9   -152.4197820 -0.221171E-07  0.202E-04    0.24      50.9  T
     SCC iter.                  ...        0 min,  0.095 sec
     gradient                   ...        0 min,  0.083 sec
 * total energy  :  -149.6724661 Eh     change       -0.3829447E-03 Eh
   gradient norm :     0.0051676 Eh/α   predicted    -0.3257686E-03 ( -14.93%)
   displ. norm   :     0.6865698 α      lambda       -0.4510198E-03
   maximum displ.:     0.4218970 α      in ANC's #4, #3, #7, ...

........................................................................
.............................. CYCLE   80 ..............................
........................................................................

 iter      E             dE          RMSdq      gap      omega  full diag
   1   -152.4194669 -0.152419E+03  0.114E-01    0.25       0.0  T
   2   -152.4193460  0.120872E-03  0.653E-02    0.24       1.0  T
   3   -152.4101937  0.915231E-02  0.194E-01    0.27       1.0  T
   4   -152.4194655 -0.927179E-02  0.150E-02    0.25       1.0  T
   5   -152.4194771 -0.116096E-04  0.106E-02    0.24       1.0  T
   6   -152.4194778 -0.714343E-06  0.893E-03    0.24       1.1  T
   7   -152.4194892 -0.113682E-04  0.189E-03    0.24       5.4  T
   8   -152.4194898 -0.657284E-06  0.574E-04    0.24      17.9  T
   9   -152.4194899 -0.446380E-07  0.225E-04    0.24      45.6  T
     SCC iter.                  ...        0 min,  0.086 sec
     gradient                   ...        0 min,  0.081 sec
 * total energy  :  -149.6728392 Eh     change       -0.3731328E-03 Eh
   gradient norm :     0.0065999 Eh/α   predicted    -0.3318110E-03 ( -11.07%)
   displ. norm   :     0.6970188 α      lambda       -0.3972481E-03
   maximum displ.:     0.4346249 α      in ANC's #4, #3, #7, ...

........................................................................
.............................. CYCLE   81 ..............................
........................................................................

 iter      E             dE          RMSdq      gap      omega  full diag
   1   -152.4185522 -0.152419E+03  0.111E-01    0.24       0.0  T
   2   -152.4184635  0.886114E-04  0.633E-02    0.23       1.0  T
   3   -152.4108062  0.765734E-02  0.178E-01    0.27       1.0  T
   4   -152.4185414 -0.773523E-02  0.165E-02    0.25       1.0  T
   5   -152.4185660 -0.245643E-04  0.954E-03    0.24       1.1  T
   6   -152.4185635  0.246534E-05  0.886E-03    0.24       1.2  T
   7   -152.4185746 -0.111047E-04  0.200E-03    0.24       5.1  T
   8   -152.4185753 -0.709877E-06  0.566E-04    0.24      18.1  T
   9   -152.4185754 -0.415305E-07  0.220E-04    0.24      46.7  T
     SCC iter.                  ...        0 min,  0.086 sec
     gradient                   ...        0 min,  0.100 sec
 * total energy  :  -149.6731835 Eh     change       -0.3442715E-03 Eh
   gradient norm :     0.0071366 Eh/α   predicted    -0.2951282E-03 ( -14.27%)
   displ. norm   :     0.6461002 α      lambda       -0.5219375E-03
   maximum displ.:     0.3981193 α      in ANC's #4, #3, #7, ...

........................................................................
.............................. CYCLE   82 ..............................
........................................................................

 iter      E             dE          RMSdq      gap      omega  full diag
   1   -152.4251024 -0.152425E+03  0.106E-01    0.24       0.0  T
   2   -152.4248863  0.216081E-03  0.675E-02    0.23       1.0  T
   3   -152.4148012  0.100851E-01  0.205E-01    0.27       1.0  T
   4   -152.4250382 -0.102369E-01  0.248E-02    0.25       1.0  T
   5   -152.4251072 -0.690636E-04  0.145E-02    0.24       1.0  T
   6   -152.4251323 -0.251195E-04  0.645E-03    0.23       1.6  T
   7   -152.4251362 -0.384535E-05  0.232E-03    0.24       4.4  T
   8   -152.4251369 -0.707419E-06  0.876E-04    0.24      11.7  T
   9   -152.4251370 -0.968167E-07  0.366E-04    0.24      28.0  T
     SCC iter.                  ...        0 min,  0.087 sec
     gradient                   ...        0 min,  0.088 sec
 * total energy  :  -149.6734677 Eh     change       -0.2841789E-03 Eh
   gradient norm :     0.0091088 Eh/α   predicted    -0.3699109E-03 (  30.17%)
   displ. norm   :     0.7100982 α      lambda       -0.5842233E-03
   maximum displ.:     0.4477063 α      in ANC's #4, #3, #7, ...

........................................................................
.............................. CYCLE   83 ..............................
........................................................................

 iter      E             dE          RMSdq      gap      omega  full diag
   1   -152.4206154 -0.152421E+03  0.115E-01    0.23       0.0  T
   2   -152.4206203 -0.494443E-05  0.614E-02    0.23       1.0  T
   3   -152.4195821  0.103827E-02  0.674E-02    0.25       1.0  T
   4   -152.4202781 -0.696014E-03  0.397E-02    0.24       1.0  T
   5   -152.4206118 -0.333710E-03  0.130E-02    0.23       1.0  T
   6   -152.4206259 -0.140560E-04  0.936E-03    0.23       1.1  T
   7   -152.4206377 -0.118351E-04  0.160E-03    0.23       6.4  T
   8   -152.4206380 -0.295220E-06  0.575E-04    0.23      17.8  T
   9   -152.4206380 -0.314727E-07  0.294E-04    0.23      34.9  T
     SCC iter.                  ...        0 min,  0.087 sec
     gradient                   ...        0 min,  0.082 sec
 * total energy  :  -149.6738935 Eh     change       -0.4257990E-03 Eh
   gradient norm :     0.0079871 Eh/α   predicted    -0.4394082E-03 (   3.20%)
   displ. norm   :     0.6684380 α      lambda       -0.4087138E-03
   maximum displ.:     0.4280345 α      in ANC's #4, #3, #7, ...

........................................................................
.............................. CYCLE   84 ..............................
........................................................................

 iter      E             dE          RMSdq      gap      omega  full diag
   1   -152.4176622 -0.152418E+03  0.970E-02    0.23       0.0  T
   2   -152.4176667 -0.455472E-05  0.526E-02    0.23       1.0  T
   3   -152.4170673  0.599371E-03  0.506E-02    0.24       1.0  T
   4   -152.4174784 -0.411037E-03  0.298E-02    0.23       1.0  T
   5   -152.4176664 -0.187979E-03  0.875E-03    0.23       1.2  T
   6   -152.4176681 -0.172996E-05  0.747E-03    0.23       1.4  T
   7   -152.4176763 -0.819189E-05  0.158E-03    0.23       6.5  T
   8   -152.4176766 -0.332579E-06  0.457E-04    0.23      22.5  T
   9   -152.4176766 -0.220513E-07  0.220E-04    0.23      46.7  T
     SCC iter.                  ...        0 min,  0.086 sec
     gradient                   ...        0 min,  0.083 sec
 * total energy  :  -149.6742186 Eh     change       -0.3251171E-03 Eh
   gradient norm :     0.0104569 Eh/α   predicted    -0.2956683E-03 (  -9.06%)
   displ. norm   :     0.5199536 α      lambda       -0.5521493E-03
   maximum displ.:     0.3320237 α      in ANC's #4, #3, #7, ...

........................................................................
.............................. CYCLE   85 ..............................
........................................................................

 iter      E             dE          RMSdq      gap      omega  full diag
   1   -152.4220667 -0.152422E+03  0.801E-02    0.23       0.0  T
   2   -152.4220422  0.245119E-04  0.461E-02    0.23       1.0  T
   3   -152.4189194  0.312279E-02  0.115E-01    0.22       1.0  T
   4   -152.4218699 -0.295054E-02  0.314E-02    0.23       1.0  T
   5   -152.4220649 -0.195029E-03  0.112E-02    0.23       1.0  T
   6   -152.4220804 -0.154190E-04  0.371E-03    0.23       2.8  T
   7   -152.4220809 -0.560601E-06  0.134E-03    0.23       7.6  T
   8   -152.4220812 -0.257173E-06  0.512E-04    0.23      20.0  T
   9   -152.4220812 -0.296175E-07  0.199E-04    0.23      51.6  T
     SCC iter.                  ...        0 min,  0.087 sec
     gradient                   ...        0 min,  0.091 sec
 * total energy  :  -149.6746183 Eh     change       -0.3997035E-03 Eh
   gradient norm :     0.0090179 Eh/α   predicted    -0.3507136E-03 ( -12.26%)
   displ. norm   :     0.7543732 α      lambda       -0.5740681E-03
   maximum displ.:     0.4861643 α      in ANC's #4, #3, #7, ...

........................................................................
.............................. CYCLE   86 ..............................
........................................................................

 iter      E             dE          RMSdq      gap      omega  full diag
   1   -152.4211065 -0.152421E+03  0.113E-01    0.23       0.0  T
   2   -152.4210941  0.124287E-04  0.627E-02    0.22       1.0  T
   3   -152.4181870  0.290702E-02  0.110E-01    0.23       1.0  T
   4   -152.4210263 -0.283925E-02  0.237E-02    0.22       1.0  T
   5   -152.4211087 -0.823798E-04  0.122E-02    0.23       1.0  T
   6   -152.4211194 -0.107299E-04  0.837E-03    0.23       1.2  T
   7   -152.4211286 -0.923334E-05  0.157E-03    0.23       6.6  T
   8   -152.4211290 -0.345598E-06  0.582E-04    0.23      17.6  T
   9   -152.4211290 -0.298706E-07  0.284E-04    0.23      36.1  T
     SCC iter.                  ...        0 min,  0.086 sec
     gradient                   ...        0 min,  0.087 sec
 * total energy  :  -149.6750894 Eh     change       -0.4711114E-03 Eh
   gradient norm :     0.0131876 Eh/α   predicted    -0.4503843E-03 (  -4.40%)
   displ. norm   :     0.6268901 α      lambda       -0.6761275E-03
   maximum displ.:     0.3949157 α      in ANC's #4, #3, #13, ...

........................................................................
.............................. CYCLE   87 ..............................
........................................................................

 iter      E             dE          RMSdq      gap      omega  full diag
   1   -152.4237800 -0.152424E+03  0.101E-01    0.23       0.0  T
   2   -152.4237274  0.525851E-04  0.589E-02    0.23       1.0  T
   3   -152.4186293  0.509806E-02  0.146E-01    0.23       1.0  T
   4   -152.4236196 -0.499031E-02  0.319E-02    0.22       1.0  T
   5   -152.4237960 -0.176394E-03  0.115E-02    0.23       1.0  T
   6   -152.4238056 -0.955426E-05  0.792E-03    0.23       1.3  T
   7   -152.4238126 -0.705902E-05  0.264E-03    0.23       3.9  T
   8   -152.4238136 -0.921900E-06  0.102E-03    0.23      10.0  T
   9   -152.4238137 -0.133963E-06  0.398E-04    0.23      25.8  T
  10   -152.4238137 -0.867311E-08  0.239E-04    0.23      42.9  T
     SCC iter.                  ...        0 min,  0.096 sec
     gradient                   ...        0 min,  0.083 sec
 * total energy  :  -149.6755683 Eh     change       -0.4788584E-03 Eh
   gradient norm :     0.0119961 Eh/α   predicted    -0.4709265E-03 (  -1.66%)
   displ. norm   :     0.7404343 α      lambda       -0.5948254E-03
   maximum displ.:     0.4892551 α      in ANC's #4, #3, #7, ...

........................................................................
.............................. CYCLE   88 ..............................
........................................................................

 iter      E             dE          RMSdq      gap      omega  full diag
   1   -152.4174658 -0.152417E+03  0.112E-01    0.23       0.0  T
   2   -152.4173892  0.765841E-04  0.646E-02    0.23       1.0  T
   3   -152.4109968  0.639232E-02  0.164E-01    0.24       1.0  T
   4   -152.4173033 -0.630643E-02  0.331E-02    0.22       1.0  T
   5   -152.4174769 -0.173589E-03  0.147E-02    0.23       1.0  T
   6   -152.4175004 -0.235614E-04  0.839E-03    0.23       1.2  T
   7   -152.4175073 -0.685036E-05  0.275E-03    0.23       3.7  T
   8   -152.4175083 -0.101532E-05  0.944E-04    0.23      10.9  T
   9   -152.4175084 -0.129720E-06  0.376E-04    0.23      27.3  T
  10   -152.4175084 -0.126805E-07  0.194E-04    0.23      52.9  T
     SCC iter.                  ...        0 min,  0.096 sec
     gradient                   ...        0 min,  0.081 sec
 * total energy  :  -149.6760085 Eh     change       -0.4402462E-03 Eh
   gradient norm :     0.0124012 Eh/α   predicted    -0.4604687E-03 (   4.59%)
   displ. norm   :     0.3595699 α      lambda       -0.7818157E-03
   maximum displ.:     0.2277029 α      in ANC's #4, #3, #1, ...

........................................................................
.............................. CYCLE   89 ..............................
........................................................................

 iter      E             dE          RMSdq      gap      omega  full diag
   1   -152.4251830 -0.152425E+03  0.796E-02    0.24       0.0  T
   2   -152.4250827  0.100347E-03  0.525E-02    0.24       1.0  T
   3   -152.4219399  0.314279E-02  0.120E-01    0.24       1.0  T
   4   -152.4245752 -0.263530E-02  0.555E-02    0.22       1.0  T
   5   -152.4251530 -0.577855E-03  0.255E-02    0.24       1.0  T
   6   -152.4252569 -0.103907E-03  0.460E-03    0.24       2.2  T
   7   -152.4252587 -0.175396E-05  0.233E-03    0.23       4.4  T
   8   -152.4252592 -0.533976E-06  0.102E-03    0.24      10.0  T
   9   -152.4252593 -0.834585E-07  0.437E-04    0.23      23.5  T
  10   -152.4252593 -0.266187E-07  0.155E-04    0.23      66.1  T
     SCC iter.                  ...        0 min,  0.101 sec
     gradient                   ...        0 min,  0.082 sec
 * total energy  :  -149.6760391 Eh     change       -0.3062247E-04 Eh
   gradient norm :     0.0201723 Eh/α   predicted    -0.4414502E-03 (1341.59%)
   displ. norm   :     0.4163583 α      lambda       -0.8280938E-03
   maximum displ.:     0.2669839 α      in ANC's #4, #3, #7, ...

........................................................................
.............................. CYCLE   90 ..............................
........................................................................

 iter      E             dE          RMSdq      gap      omega  full diag
   1   -152.4196343 -0.152420E+03  0.717E-02    0.23       0.0  T
   2   -152.4196215  0.127844E-04  0.409E-02    0.23       1.0  T
   3   -152.4183969  0.122455E-02  0.758E-02    0.23       1.0  T
   4   -152.4193170 -0.920040E-03  0.377E-02    0.23       1.0  T
   5   -152.4196292 -0.312217E-03  0.115E-02    0.23       1.0  T
   6   -152.4196481 -0.189388E-04  0.375E-03    0.23       2.7  T
   7   -152.4196487 -0.629050E-06  0.112E-03    0.23       9.2  T
   8   -152.4196489 -0.160603E-06  0.423E-04    0.23      24.3  T
   9   -152.4196489 -0.189287E-07  0.198E-04    0.23      51.7  T
     SCC iter.                  ...        0 min,  0.094 sec
     gradient                   ...        0 min,  0.082 sec
 * total energy  :  -149.6764672 Eh     change       -0.4280397E-03 Eh
   gradient norm :     0.0080200 Eh/α   predicted    -0.4858257E-03 (  13.50%)
   displ. norm   :     0.3166092 α      lambda       -0.2182390E-03
   maximum displ.:     0.2178397 α      in ANC's #4, #3, #7, ...

........................................................................
.............................. CYCLE   91 ..............................
........................................................................

 iter      E             dE          RMSdq      gap      omega  full diag
   1   -152.4181374 -0.152418E+03  0.448E-02    0.24       0.0  T
   2   -152.4181132  0.241444E-04  0.275E-02    0.24       1.0  T
   3   -152.4167760  0.133729E-02  0.765E-02    0.24       1.0  T
   4   -152.4180416 -0.126569E-02  0.223E-02    0.23       1.0  T
   5   -152.4181351 -0.934805E-04  0.870E-03    0.23       1.2  T
   6   -152.4181460 -0.108282E-04  0.265E-03    0.24       3.9  T
   7   -152.4181463 -0.345981E-06  0.112E-03    0.23       9.2  T
   8   -152.4181465 -0.173041E-06  0.418E-04    0.23      24.5  T
   9   -152.4181465 -0.231440E-07  0.175E-04    0.23      58.5  T
     SCC iter.                  ...        0 min,  0.086 sec
     gradient                   ...        0 min,  0.084 sec
 * total energy  :  -149.6765955 Eh     change       -0.1283070E-03 Eh
   gradient norm :     0.0081125 Eh/α   predicted    -0.1200587E-03 (  -6.43%)
   displ. norm   :     0.3421865 α      lambda       -0.2556373E-03
   maximum displ.:     0.2346133 α      in ANC's #4, #3, #7, ...

........................................................................
.............................. CYCLE   92 ..............................
........................................................................

 iter      E             dE          RMSdq      gap      omega  full diag
   1   -152.4183028 -0.152418E+03  0.487E-02    0.24       0.0  T
   2   -152.4182843  0.184332E-04  0.290E-02    0.23       1.0  T
   3   -152.4171318  0.115251E-02  0.727E-02    0.24       1.0  T
   4   -152.4181610 -0.102921E-02  0.258E-02    0.24       1.0  T
   5   -152.4183029 -0.141915E-03  0.628E-03    0.24       1.6  T
   6   -152.4183086 -0.562496E-05  0.232E-03    0.23       4.4  T
   7   -152.4183088 -0.268155E-06  0.741E-04    0.23      13.9  T
   8   -152.4183089 -0.495506E-07  0.329E-04    0.23      31.2  T
     SCC iter.                  ...        0 min,  0.073 sec
     gradient                   ...        0 min,  0.095 sec
 * total energy  :  -149.6767154 Eh     change       -0.1199212E-03 Eh
   gradient norm :     0.0086112 Eh/α   predicted    -0.1427875E-03 (  19.07%)
   displ. norm   :     0.3942999 α      lambda       -0.3071085E-03
   maximum displ.:     0.2713381 α      in ANC's #4, #3, #5, ...
 * RMSD in coord.:     1.2500609 α      energy gain  -0.8017743E-02 Eh

generating ANC from exact Hessian ...
Using Lindh-Hessian (1995)
 Shifting diagonal of input Hessian by    1.0098908991914702E-002
 Lowest  eigenvalues of input Hessian
    0.010000    0.000000    0.000000    0.000000    0.000000    0.000000
    0.000000    0.010132    0.010159    0.010285    0.010390    0.010510
    0.010602    0.010748    0.010881    0.010978    0.011249    0.011402
 Highest eigenvalues
    2.080066    2.091029    2.133799    2.169775    2.193704    2.207025


........................................................................
.............................. CYCLE   93 ..............................
........................................................................

 iter      E             dE          RMSdq      gap      omega  full diag
   1   -152.4221465 -0.152422E+03  0.516E-02    0.24       0.0  T
   2   -152.4221445  0.199839E-05  0.304E-02    0.23       1.0  T
   3   -152.4218382  0.306319E-03  0.414E-02    0.24       1.0  T
   4   -152.4219828 -0.144556E-03  0.282E-02    0.23       1.0  T
   5   -152.4220735 -0.907483E-04  0.198E-02    0.24       1.0  T
   6   -152.4221600 -0.864617E-04  0.304E-03    0.23       3.4  T
   7   -152.4221608 -0.780455E-06  0.142E-03    0.23       7.2  T
   8   -152.4221610 -0.213015E-06  0.581E-04    0.23      17.7  T
   9   -152.4221610 -0.374083E-07  0.246E-04    0.23      41.7  T
     SCC iter.                  ...        0 min,  0.087 sec
     gradient                   ...        0 min,  0.085 sec
 * total energy  :  -149.6769070 Eh     change       -0.1916040E-03 Eh
   gradient norm :     0.0074433 Eh/α   predicted     0.0000000E+00 (-100.00%)
   displ. norm   :     0.0651325 α      lambda       -0.1331378E-03
   maximum displ.:     0.0229625 α      in ANC's #40, #4, #8, ...

........................................................................
.............................. CYCLE   94 ..............................
........................................................................

 iter      E             dE          RMSdq      gap      omega  full diag
   1   -152.4237331 -0.152424E+03  0.177E-02    0.23       0.0  T
   2   -152.4237230  0.101698E-04  0.126E-02    0.23       1.0  T
   3   -152.4234839  0.239039E-03  0.327E-02    0.24       1.0  T
   4   -152.4236927 -0.208737E-03  0.140E-02    0.23       1.0  T
   5   -152.4237342 -0.415852E-04  0.235E-03    0.23       4.4  T
   6   -152.4237348 -0.556565E-06  0.866E-04    0.23      11.8  T
   7   -152.4237348 -0.242063E-07  0.409E-04    0.23      25.1  T
     SCC iter.                  ...        0 min,  0.070 sec
     gradient                   ...        0 min,  0.082 sec
 * total energy  :  -149.6770128 Eh     change       -0.1057743E-03 Eh
   gradient norm :     0.0028575 Eh/α   predicted    -0.7207991E-04 ( -31.86%)
   displ. norm   :     0.1290511 α      lambda       -0.1283071E-03
   maximum displ.:     0.0535600 α      in ANC's #4, #6, #10, ...

........................................................................
.............................. CYCLE   95 ..............................
........................................................................

 iter      E             dE          RMSdq      gap      omega  full diag
   1   -152.4251606 -0.152425E+03  0.289E-02    0.24       0.0  T
   2   -152.4251250  0.356076E-04  0.206E-02    0.23       1.0  T
   3   -152.4243184  0.806578E-03  0.595E-02    0.24       1.0  T
   4   -152.4251215 -0.803148E-03  0.148E-02    0.23       1.0  T
   5   -152.4251627 -0.411987E-04  0.409E-03    0.24       2.5  T
   6   -152.4251645 -0.171958E-05  0.152E-03    0.24       6.7  T
   7   -152.4251646 -0.103807E-06  0.548E-04    0.24      18.7  T
   8   -152.4251646 -0.460471E-07  0.175E-04    0.24      58.7  T
     SCC iter.                  ...        0 min,  0.078 sec
     gradient                   ...        0 min,  0.085 sec
 * total energy  :  -149.6770977 Eh     change       -0.8495094E-04 Eh
   gradient norm :     0.0032083 Eh/α   predicted    -0.6522397E-04 ( -23.22%)
   displ. norm   :     0.1434542 α      lambda       -0.7976026E-04
   maximum displ.:     0.0592663 α      in ANC's #4, #6, #8, ...

........................................................................
.............................. CYCLE   96 ..............................
........................................................................

 iter      E             dE          RMSdq      gap      omega  full diag
   1   -152.4256283 -0.152426E+03  0.293E-02    0.24       0.0  T
   2   -152.4256160  0.122947E-04  0.177E-02    0.24       1.0  T
   3   -152.4248453  0.770692E-03  0.570E-02    0.24       1.0  T
   4   -152.4256130 -0.767675E-03  0.946E-03    0.24       1.1  T
   5   -152.4256287 -0.157811E-04  0.373E-03    0.24       2.7  T
   6   -152.4256301 -0.140117E-05  0.147E-03    0.24       7.0  T
   7   -152.4256303 -0.152134E-06  0.443E-04    0.24      23.1  T
   8   -152.4256303 -0.356003E-07  0.147E-04    0.24      69.8  T
     SCC iter.                  ...        0 min,  0.074 sec
     gradient                   ...        0 min,  0.092 sec
 * total energy  :  -149.6771594 Eh     change       -0.6165386E-04 Eh
   gradient norm :     0.0046891 Eh/α   predicted    -0.4070126E-04 ( -33.98%)
   displ. norm   :     0.2584744 α      lambda       -0.1261705E-03
   maximum displ.:     0.1155761 α      in ANC's #4, #6, #8, ...

........................................................................
.............................. CYCLE   97 ..............................
........................................................................

 iter      E             dE          RMSdq      gap      omega  full diag
   1   -152.4252222 -0.152425E+03  0.509E-02    0.24       0.0  T
   2   -152.4251813  0.408633E-04  0.307E-02    0.23       1.0  T
   3   -152.4227584  0.242287E-02  0.101E-01    0.24       1.0  T
   4   -152.4252010 -0.244261E-02  0.124E-02    0.23       1.0  T
   5   -152.4252226 -0.215641E-04  0.621E-03    0.24       1.7  T
   6   -152.4252268 -0.416695E-05  0.206E-03    0.24       5.0  T
   7   -152.4252272 -0.403761E-06  0.516E-04    0.24      19.9  T
   8   -152.4252272 -0.471114E-07  0.175E-04    0.24      58.7  T
     SCC iter.                  ...        0 min,  0.076 sec
     gradient                   ...        0 min,  0.080 sec
 * total energy  :  -149.6772573 Eh     change       -0.9786835E-04 Eh
   gradient norm :     0.0047167 Eh/α   predicted    -0.6730402E-04 ( -31.23%)
   displ. norm   :     0.3142800 α      lambda       -0.1399491E-03
   maximum displ.:     0.1409423 α      in ANC's #4, #6, #8, ...

........................................................................
.............................. CYCLE   98 ..............................
........................................................................

 iter      E             dE          RMSdq      gap      omega  full diag
   1   -152.4243855 -0.152424E+03  0.596E-02    0.24       0.0  T
   2   -152.4243755  0.999899E-05  0.329E-02    0.24       1.0  T
   3   -152.4230224  0.135309E-02  0.749E-02    0.24       1.0  T
   4   -152.4243783 -0.135594E-02  0.886E-03    0.23       1.2  T
   5   -152.4243830 -0.465521E-05  0.717E-03    0.24       1.4  T
   6   -152.4243878 -0.482771E-05  0.325E-03    0.24       3.2  T
   7   -152.4243896 -0.178668E-05  0.493E-04    0.24      20.8  T
   8   -152.4243896 -0.329435E-07  0.179E-04    0.24      57.4  T
   9   -152.4243896 -0.296282E-08  0.809E-05    0.24     126.8  T
     SCC iter.                  ...        0 min,  0.085 sec
     gradient                   ...        0 min,  0.080 sec
 * total energy  :  -149.6773667 Eh     change       -0.1094122E-03 Eh
   gradient norm :     0.0039121 Eh/α   predicted    -0.7690590E-04 ( -29.71%)
   displ. norm   :     0.3589017 α      lambda       -0.1452517E-03
   maximum displ.:     0.1673576 α      in ANC's #4, #6, #8, ...

........................................................................
.............................. CYCLE   99 ..............................
........................................................................

 iter      E             dE          RMSdq      gap      omega  full diag
   1   -152.4235185 -0.152424E+03  0.658E-02    0.23       0.0  T
   2   -152.4235122  0.625542E-05  0.363E-02    0.24       1.0  T
   3   -152.4223968  0.111543E-02  0.681E-02    0.24       1.0  T
   4   -152.4234967 -0.109989E-02  0.123E-02    0.23       1.0  T
   5   -152.4235209 -0.241972E-04  0.533E-03    0.24       1.9  T
   6   -152.4235190  0.190811E-05  0.507E-03    0.23       2.0  T
   7   -152.4235236 -0.461836E-05  0.757E-04    0.23      13.5  T
   8   -152.4235236 -0.743253E-07  0.233E-04    0.24      44.1  T
   9   -152.4235237 -0.611612E-08  0.101E-04    0.24     101.6  T
     SCC iter.                  ...        0 min,  0.085 sec
     gradient                   ...        0 min,  0.081 sec
 * total energy  :  -149.6774849 Eh     change       -0.1181804E-03 Eh
   gradient norm :     0.0046607 Eh/α   predicted    -0.8198350E-04 ( -30.63%)
   displ. norm   :     0.4127209 α      lambda       -0.1711181E-03
   maximum displ.:     0.1942206 α      in ANC's #4, #6, #8, ...

........................................................................
.............................. CYCLE  100 ..............................
........................................................................

 iter      E             dE          RMSdq      gap      omega  full diag
   1   -152.4232632 -0.152423E+03  0.735E-02    0.23       0.0  T
   2   -152.4232669 -0.371262E-05  0.402E-02    0.24       1.0  T
   3   -152.4232234  0.434971E-04  0.166E-02    0.23       1.0  T
   4   -152.4231574  0.660056E-04  0.221E-02    0.23       1.0  T
   5   -152.4232436 -0.861520E-04  0.108E-02    0.24       1.0  T
   6   -152.4232638 -0.202762E-04  0.623E-03    0.23       1.6  T
   7   -152.4232694 -0.557114E-05  0.941E-04    0.23      10.9  T
   8   -152.4232695 -0.146780E-06  0.281E-04    0.23      36.5  T
   9   -152.4232696 -0.941611E-08  0.113E-04    0.23      91.0  T
     SCC iter.                  ...        0 min,  0.085 sec
     gradient                   ...        0 min,  0.093 sec
 * total energy  :  -149.6776270 Eh     change       -0.1421781E-03 Eh
   gradient norm :     0.0054268 Eh/α   predicted    -0.1001366E-03 ( -29.57%)
   displ. norm   :     0.5035367 α      lambda       -0.2025125E-03
   maximum displ.:     0.2409003 α      in ANC's #4, #6, #8, ...

........................................................................
.............................. CYCLE  101 ..............................
........................................................................

 iter      E             dE          RMSdq      gap      omega  full diag
   1   -152.4230067 -0.152423E+03  0.886E-02    0.23       0.0  T
   2   -152.4230110 -0.431714E-05  0.487E-02    0.23       1.0  T
   3   -152.4229410  0.700274E-04  0.213E-02    0.23       1.0  T
   4   -152.4229788 -0.377808E-04  0.143E-02    0.23       1.0  T
   5   -152.4229463  0.325088E-04  0.171E-02    0.23       1.0  T
   6   -152.4229996 -0.533076E-04  0.891E-03    0.23       1.2  T
   7   -152.4230154 -0.157671E-04  0.103E-03    0.23      10.0  T
   8   -152.4230155 -0.162492E-06  0.313E-04    0.23      32.8  T
   9   -152.4230155 -0.101282E-07  0.133E-04    0.23      77.1  T
     SCC iter.                  ...        0 min,  0.082 sec
     gradient                   ...        0 min,  0.081 sec
 * total energy  :  -149.6777939 Eh     change       -0.1668915E-03 Eh
   gradient norm :     0.0051554 Eh/α   predicted    -0.1269378E-03 ( -23.94%)
   displ. norm   :     0.5310603 α      lambda       -0.2040382E-03
   maximum displ.:     0.2568216 α      in ANC's #4, #6, #8, ...

........................................................................
.............................. CYCLE  102 ..............................
........................................................................

 iter      E             dE          RMSdq      gap      omega  full diag
   1   -152.4235943 -0.152424E+03  0.914E-02    0.23       0.0  T
   2   -152.4235949 -0.513842E-06  0.506E-02    0.23       1.0  T
   3   -152.4231830  0.411827E-03  0.436E-02    0.23       1.0  T
   4   -152.4234680 -0.284991E-03  0.245E-02    0.23       1.0  T
   5   -152.4235672 -0.991506E-04  0.137E-02    0.23       1.0  T
   6   -152.4236001 -0.329485E-04  0.474E-03    0.23       2.2  T
   7   -152.4236027 -0.259371E-05  0.978E-04    0.23      10.5  T
   8   -152.4236029 -0.142819E-06  0.287E-04    0.23      35.8  T
   9   -152.4236029 -0.678997E-08  0.137E-04    0.23      74.7  T
     SCC iter.                  ...        0 min,  0.086 sec
     gradient                   ...        0 min,  0.083 sec
 * total energy  :  -149.6779569 Eh     change       -0.1629548E-03 Eh
   gradient norm :     0.0047339 Eh/α   predicted    -0.1308004E-03 ( -19.73%)
   displ. norm   :     0.5359039 α      lambda       -0.1741085E-03
   maximum displ.:     0.2634117 α      in ANC's #4, #6, #8, ...

........................................................................
.............................. CYCLE  103 ..............................
........................................................................

 iter      E             dE          RMSdq      gap      omega  full diag
   1   -152.4233497 -0.152423E+03  0.920E-02    0.23       0.0  T
   2   -152.4233516 -0.193201E-05  0.508E-02    0.23       1.0  T
   3   -152.4230672  0.284418E-03  0.372E-02    0.23       1.0  T
   4   -152.4232309 -0.163674E-03  0.233E-02    0.23       1.0  T
   5   -152.4233230 -0.921245E-04  0.130E-02    0.23       1.0  T
   6   -152.4233539 -0.309315E-04  0.491E-03    0.23       2.1  T
   7   -152.4233570 -0.304870E-05  0.881E-04    0.23      11.6  T
   8   -152.4233571 -0.112543E-06  0.268E-04    0.23      38.3  T
   9   -152.4233571 -0.573175E-08  0.132E-04    0.23      77.6  T
     SCC iter.                  ...        0 min,  0.086 sec
     gradient                   ...        0 min,  0.086 sec
 * total energy  :  -149.6780938 Eh     change       -0.1368981E-03 Eh
   gradient norm :     0.0047421 Eh/α   predicted    -0.1120589E-03 ( -18.14%)
   displ. norm   :     0.4551549 α      lambda       -0.1695252E-03
   maximum displ.:     0.2255912 α      in ANC's #4, #6, #2, ...

........................................................................
.............................. CYCLE  104 ..............................
........................................................................

 iter      E             dE          RMSdq      gap      omega  full diag
   1   -152.4269818 -0.152427E+03  0.727E-02    0.24       0.0  T
   2   -152.4269795  0.229672E-05  0.414E-02    0.23       1.0  T
   3   -152.4263037  0.675792E-03  0.537E-02    0.24       1.0  T
   4   -152.4269393 -0.635617E-03  0.146E-02    0.23       1.0  T
   5   -152.4269792 -0.399184E-04  0.640E-03    0.23       1.6  T
   6   -152.4269827 -0.341318E-05  0.447E-03    0.23       2.3  T
   7   -152.4269857 -0.302948E-05  0.720E-04    0.23      14.3  T
   8   -152.4269858 -0.796386E-07  0.222E-04    0.23      46.2  T
   9   -152.4269858 -0.394965E-08  0.120E-04    0.23      85.3  T
     SCC iter.                  ...        0 min,  0.086 sec
     gradient                   ...        0 min,  0.082 sec
 * total energy  :  -149.6782069 Eh     change       -0.1131017E-03 Eh
   gradient norm :     0.0056775 Eh/α   predicted    -0.1023248E-03 (  -9.53%)
   displ. norm   :     0.5888345 α      lambda       -0.1759516E-03
   maximum displ.:     0.2952437 α      in ANC's #4, #6, #8, ...

........................................................................
.............................. CYCLE  105 ..............................
........................................................................

 iter      E             dE          RMSdq      gap      omega  full diag
   1   -152.4229815 -0.152423E+03  0.106E-01    0.24       0.0  T
   2   -152.4229500  0.314937E-04  0.591E-02    0.23       1.0  T
   3   -152.4188443  0.410577E-02  0.130E-01    0.24       1.0  T
   4   -152.4229806 -0.413634E-02  0.109E-02    0.23       1.0  T
   5   -152.4229877 -0.704749E-05  0.652E-03    0.23       1.6  T
   6   -152.4229911 -0.344021E-05  0.312E-03    0.23       3.3  T
   7   -152.4229923 -0.124147E-05  0.165E-03    0.23       6.2  T
   8   -152.4229928 -0.449890E-06  0.488E-04    0.23      21.0  T
   9   -152.4229928 -0.287269E-07  0.163E-04    0.23      63.0  T
     SCC iter.                  ...        0 min,  0.092 sec
     gradient                   ...        0 min,  0.082 sec
 * total energy  :  -149.6783095 Eh     change       -0.1026270E-03 Eh
   gradient norm :     0.0063469 Eh/α   predicted    -0.1184812E-03 (  15.45%)
   displ. norm   :     0.2689042 α      lambda       -0.1461483E-03
   maximum displ.:     0.1344559 α      in ANC's #4, #6, #2, ...

........................................................................
.............................. CYCLE  106 ..............................
........................................................................

 iter      E             dE          RMSdq      gap      omega  full diag
   1   -152.4257091 -0.152426E+03  0.422E-02    0.24       0.0  T
   2   -152.4256663  0.427874E-04  0.280E-02    0.23       1.0  T
   3   -152.4237912  0.187508E-02  0.886E-02    0.24       1.0  T
   4   -152.4256859 -0.189472E-02  0.125E-02    0.24       1.0  T
   5   -152.4257076 -0.217169E-04  0.722E-03    0.23       1.4  T
   6   -152.4257151 -0.742491E-05  0.167E-03    0.23       6.2  T
   7   -152.4257152 -0.101746E-06  0.792E-04    0.23      13.0  T
   8   -152.4257153 -0.935239E-07  0.258E-04    0.23      39.7  T
     SCC iter.                  ...        0 min,  0.081 sec
     gradient                   ...        0 min,  0.084 sec
 * total energy  :  -149.6784161 Eh     change       -0.1065644E-03 Eh
   gradient norm :     0.0046694 Eh/α   predicted    -0.7836512E-04 ( -26.46%)
   displ. norm   :     0.3756225 α      lambda       -0.1604836E-03
   maximum displ.:     0.1892359 α      in ANC's #4, #6, #2, ...

........................................................................
.............................. CYCLE  107 ..............................
........................................................................

 iter      E             dE          RMSdq      gap      omega  full diag
   1   -152.4278048 -0.152428E+03  0.579E-02    0.24       0.0  T
   2   -152.4277573  0.474299E-04  0.364E-02    0.23       1.0  T
   3   -152.4248285  0.292887E-02  0.110E-01    0.25       1.0  T
   4   -152.4277665 -0.293801E-02  0.162E-02    0.24       1.0  T
   5   -152.4278042 -0.376704E-04  0.868E-03    0.23       1.2  T
   6   -152.4278148 -0.106613E-04  0.284E-03    0.23       3.6  T
   7   -152.4278154 -0.601784E-06  0.120E-03    0.23       8.6  T
   8   -152.4278156 -0.218843E-06  0.351E-04    0.23      29.2  T
   9   -152.4278156 -0.144002E-07  0.131E-04    0.23      78.1  T
     SCC iter.                  ...        0 min,  0.089 sec
     gradient                   ...        0 min,  0.093 sec
 * total energy  :  -149.6785278 Eh     change       -0.1116945E-03 Eh
   gradient norm :     0.0040452 Eh/α   predicted    -0.9156430E-04 ( -18.02%)
   displ. norm   :     0.5024934 α      lambda       -0.1330495E-03
   maximum displ.:     0.2584890 α      in ANC's #4, #6, #2, ...

........................................................................
.............................. CYCLE  108 ..............................
........................................................................

 iter      E             dE          RMSdq      gap      omega  full diag
   1   -152.4266258 -0.152427E+03  0.796E-02    0.24       0.0  T
   2   -152.4265936  0.322308E-04  0.461E-02    0.23       1.0  T
   3   -152.4232050  0.338854E-02  0.118E-01    0.25       1.0  T
   4   -152.4265961 -0.339105E-02  0.155E-02    0.24       1.0  T
   5   -152.4266346 -0.385731E-04  0.461E-03    0.23       2.2  T
   6   -152.4266355 -0.885777E-06  0.233E-03    0.23       4.4  T
   7   -152.4266363 -0.802077E-06  0.540E-04    0.23      19.0  T
   8   -152.4266364 -0.209103E-07  0.323E-04    0.23      31.7  T
     SCC iter.                  ...        0 min,  0.091 sec
     gradient                   ...        0 min,  0.083 sec
 * total energy  :  -149.6786303 Eh     change       -0.1025194E-03 Eh
   gradient norm :     0.0040890 Eh/α   predicted    -0.8332274E-04 ( -18.72%)
   displ. norm   :     0.4347899 α      lambda       -0.1418572E-03
   maximum displ.:     0.2173446 α      in ANC's #4, #6, #2, ...

........................................................................
.............................. CYCLE  109 ..............................
........................................................................

 iter      E             dE          RMSdq      gap      omega  full diag
   1   -152.4283538 -0.152428E+03  0.647E-02    0.23       0.0  T
   2   -152.4283176  0.362340E-04  0.380E-02    0.23       1.0  T
   3   -152.4254368  0.288083E-02  0.109E-01    0.25       1.0  T
   4   -152.4283215 -0.288472E-02  0.157E-02    0.24       1.0  T
   5   -152.4283616 -0.400606E-04  0.561E-03    0.23       1.8  T
   6   -152.4283616 -0.518547E-07  0.505E-03    0.23       2.0  T
   7   -152.4283648 -0.314031E-05  0.169E-03    0.23       6.1  T
   8   -152.4283652 -0.458965E-06  0.382E-04    0.23      26.9  T
   9   -152.4283652 -0.201835E-07  0.127E-04    0.23      80.9  T
     SCC iter.                  ...        0 min,  0.089 sec
     gradient                   ...        0 min,  0.089 sec
 * total energy  :  -149.6787291 Eh     change       -0.9877338E-04 Eh
   gradient norm :     0.0043886 Eh/α   predicted    -0.8433920E-04 ( -14.61%)
   displ. norm   :     0.4811291 α      lambda       -0.1162603E-03
   maximum displ.:     0.2417509 α      in ANC's #4, #6, #2, ...

........................................................................
.............................. CYCLE  110 ..............................
........................................................................

 iter      E             dE          RMSdq      gap      omega  full diag
   1   -152.4266011 -0.152427E+03  0.727E-02    0.23       0.0  T
   2   -152.4265795  0.216200E-04  0.415E-02    0.23       1.0  T
   3   -152.4241428  0.243671E-02  0.100E-01    0.24       1.0  T
   4   -152.4265741 -0.243134E-02  0.145E-02    0.23       1.0  T
   5   -152.4266023 -0.282053E-04  0.633E-03    0.23       1.6  T
   6   -152.4266019  0.435272E-06  0.575E-03    0.23       1.8  T
   7   -152.4266075 -0.563890E-05  0.916E-04    0.23      11.2  T
   8   -152.4266076 -0.103595E-06  0.262E-04    0.23      39.1  T
   9   -152.4266077 -0.661109E-08  0.130E-04    0.23      79.1  T
     SCC iter.                  ...        0 min,  0.086 sec
     gradient                   ...        0 min,  0.089 sec
 * total energy  :  -149.6788169 Eh     change       -0.8782363E-04 Eh
   gradient norm :     0.0045440 Eh/α   predicted    -0.7158695E-04 ( -18.49%)
   displ. norm   :     0.3893132 α      lambda       -0.1301556E-03
   maximum displ.:     0.1885099 α      in ANC's #2, #4, #6, ...

........................................................................
.............................. CYCLE  111 ..............................
........................................................................

 iter      E             dE          RMSdq      gap      omega  full diag
   1   -152.4277913 -0.152428E+03  0.552E-02    0.23       0.0  T
   2   -152.4277794  0.118443E-04  0.316E-02    0.23       1.0  T
   3   -152.4263732  0.140619E-02  0.760E-02    0.24       1.0  T
   4   -152.4277738 -0.140062E-02  0.115E-02    0.23       1.0  T
   5   -152.4277916 -0.177440E-04  0.501E-03    0.23       2.0  T
   6   -152.4277919 -0.345911E-06  0.423E-03    0.23       2.4  T
   7   -152.4277949 -0.296464E-05  0.669E-04    0.23      15.3  T
   8   -152.4277949 -0.473882E-07  0.232E-04    0.23      44.2  T
   9   -152.4277949 -0.516556E-08  0.124E-04    0.23      82.8  T
     SCC iter.                  ...        0 min,  0.094 sec
     gradient                   ...        0 min,  0.083 sec
 * total energy  :  -149.6789228 Eh     change       -0.1058772E-03 Eh
   gradient norm :     0.0047444 Eh/α   predicted    -0.7494694E-04 ( -29.21%)
   displ. norm   :     0.5117150 α      lambda       -0.1800209E-03
   maximum displ.:     0.2517602 α      in ANC's #2, #4, #6, ...

........................................................................
.............................. CYCLE  112 ..............................
........................................................................

 iter      E             dE          RMSdq      gap      omega  full diag
   1   -152.4278251 -0.152428E+03  0.769E-02    0.23       0.0  T
   2   -152.4277988  0.262488E-04  0.437E-02    0.23       1.0  T
   3   -152.4249766  0.282220E-02  0.108E-01    0.24       1.0  T
   4   -152.4277990 -0.282236E-02  0.150E-02    0.23       1.0  T
   5   -152.4278237 -0.247417E-04  0.798E-03    0.23       1.3  T
   6   -152.4278276 -0.384461E-05  0.557E-03    0.23       1.8  T
   7   -152.4278324 -0.479073E-05  0.868E-04    0.23      11.8  T
   8   -152.4278325 -0.971062E-07  0.301E-04    0.23      34.1  T
   9   -152.4278325 -0.101030E-07  0.151E-04    0.23      67.7  T
     SCC iter.                  ...        0 min,  0.089 sec
     gradient                   ...        0 min,  0.086 sec
 * total energy  :  -149.6790677 Eh     change       -0.1449270E-03 Eh
   gradient norm :     0.0048675 Eh/α   predicted    -0.1135853E-03 ( -21.63%)
   displ. norm   :     0.5105652 α      lambda       -0.2054944E-03
   maximum displ.:     0.2629823 α      in ANC's #2, #4, #6, ...

........................................................................
.............................. CYCLE  113 ..............................
........................................................................

 iter      E             dE          RMSdq      gap      omega  full diag
   1   -152.4287973 -0.152429E+03  0.774E-02    0.23       0.0  T
   2   -152.4287722  0.250755E-04  0.460E-02    0.23       1.0  T
   3   -152.4258009  0.297129E-02  0.110E-01    0.24       1.0  T
   4   -152.4287355 -0.293457E-02  0.201E-02    0.23       1.0  T
   5   -152.4288009 -0.654618E-04  0.745E-03    0.23       1.4  T
   6   -152.4288056 -0.470917E-05  0.492E-03    0.23       2.1  T
   7   -152.4288088 -0.315561E-05  0.136E-03    0.23       7.6  T
   8   -152.4288090 -0.244013E-06  0.493E-04    0.23      20.8  T
   9   -152.4288091 -0.274985E-07  0.224E-04    0.23      45.8  T
     SCC iter.                  ...        0 min,  0.087 sec
     gradient                   ...        0 min,  0.086 sec
 * total energy  :  -149.6792098 Eh     change       -0.1420971E-03 Eh
   gradient norm :     0.0054675 Eh/α   predicted    -0.1295353E-03 (  -8.84%)
   displ. norm   :     0.5467837 α      lambda       -0.1416074E-03
   maximum displ.:     0.2770272 α      in ANC's #2, #4, #6, ...

........................................................................
.............................. CYCLE  114 ..............................
........................................................................

 iter      E             dE          RMSdq      gap      omega  full diag
   1   -152.4253896 -0.152425E+03  0.807E-02    0.24       0.0  T
   2   -152.4253277  0.618575E-04  0.474E-02    0.24       1.0  T
   3   -152.4203342  0.499349E-02  0.143E-01    0.24       1.0  T
   4   -152.4253873 -0.505306E-02  0.110E-02    0.23       1.0  T
   5   -152.4253947 -0.746149E-05  0.612E-03    0.24       1.7  T
   6   -152.4253916  0.315943E-05  0.643E-03    0.24       1.6  T
   7   -152.4253983 -0.667980E-05  0.111E-03    0.24       9.2  T
   8   -152.4253985 -0.196351E-06  0.343E-04    0.24      29.9  T
   9   -152.4253985 -0.135291E-07  0.166E-04    0.24      61.8  T
     SCC iter.                  ...        0 min,  0.088 sec
     gradient                   ...        0 min,  0.087 sec
 * total energy  :  -149.6793104 Eh     change       -0.1006079E-03 Eh
   gradient norm :     0.0047711 Eh/α   predicted    -0.9197569E-04 (  -8.58%)
   displ. norm   :     0.3591379 α      lambda       -0.1101029E-03
   maximum displ.:     0.1949996 α      in ANC's #2, #4, #11, ...

........................................................................
.............................. CYCLE  115 ..............................
........................................................................

 iter      E             dE          RMSdq      gap      omega  full diag
   1   -152.4262670 -0.152426E+03  0.505E-02    0.24       0.0  T
   2   -152.4262161  0.508184E-04  0.323E-02    0.24       1.0  T
   3   -152.4233418  0.287434E-02  0.109E-01    0.24       1.0  T
   4   -152.4262636 -0.292183E-02  0.782E-03    0.24       1.3  T
   5   -152.4262703 -0.670368E-05  0.360E-03    0.24       2.8  T
   6   -152.4262702  0.197016E-06  0.331E-03    0.24       3.1  T
   7   -152.4262716 -0.149829E-05  0.964E-04    0.24      10.6  T
   8   -152.4262718 -0.149904E-06  0.250E-04    0.24      41.0  T
   9   -152.4262718 -0.750177E-08  0.118E-04    0.24      87.1  T
     SCC iter.                  ...        0 min,  0.087 sec
     gradient                   ...        0 min,  0.087 sec
 * total energy  :  -149.6793865 Eh     change       -0.7609629E-04 Eh
   gradient norm :     0.0033220 Eh/α   predicted    -0.6215467E-04 ( -18.32%)
   displ. norm   :     0.3572661 α      lambda       -0.8365008E-04
   maximum displ.:     0.1945889 α      in ANC's #2, #4, #6, ...

........................................................................
.............................. CYCLE  116 ..............................
........................................................................

 iter      E             dE          RMSdq      gap      omega  full diag
   1   -152.4263093 -0.152426E+03  0.491E-02    0.24       0.0  T
   2   -152.4262478  0.614581E-04  0.322E-02    0.24       1.0  T
   3   -152.4233936  0.285426E-02  0.109E-01    0.25       1.0  T
   4   -152.4263069 -0.291332E-02  0.757E-03    0.24       1.4  T
   5   -152.4263132 -0.630988E-05  0.264E-03    0.24       3.9  T
   6   -152.4263124  0.831227E-06  0.289E-03    0.24       3.5  T
   7   -152.4263137 -0.129915E-05  0.883E-04    0.24      11.6  T
   8   -152.4263138 -0.125827E-06  0.243E-04    0.24      42.3  T
   9   -152.4263138 -0.671449E-08  0.111E-04    0.24      92.8  T
     SCC iter.                  ...        0 min,  0.094 sec
     gradient                   ...        0 min,  0.082 sec
 * total energy  :  -149.6794399 Eh     change       -0.5338174E-04 Eh
   gradient norm :     0.0030393 Eh/α   predicted    -0.4716717E-04 ( -11.64%)
   displ. norm   :     0.2646534 α      lambda       -0.5790209E-04
   maximum displ.:     0.1489258 α      in ANC's #2, #4, #6, ...

........................................................................
.............................. CYCLE  117 ..............................
........................................................................

 iter      E             dE          RMSdq      gap      omega  full diag
   1   -152.4268709 -0.152427E+03  0.326E-02    0.24       0.0  T
   2   -152.4268304  0.404899E-04  0.223E-02    0.24       1.0  T
   3   -152.4255484  0.128193E-02  0.736E-02    0.25       1.0  T
   4   -152.4268702 -0.132171E-02  0.542E-03    0.24       1.9  T
   5   -152.4268725 -0.232919E-05  0.306E-03    0.24       3.4  T
   6   -152.4268726 -0.104756E-06  0.244E-03    0.24       4.2  T
   7   -152.4268736 -0.967885E-06  0.546E-04    0.24      18.8  T
   8   -152.4268736 -0.413861E-07  0.163E-04    0.24      62.8  T
     SCC iter.                  ...        0 min,  0.092 sec
     gradient                   ...        0 min,  0.096 sec
 * total energy  :  -149.6794834 Eh     change       -0.4351626E-04 Eh
   gradient norm :     0.0026412 Eh/α   predicted    -0.3098091E-04 ( -28.81%)
   displ. norm   :     0.3512144 α      lambda       -0.6666002E-04
   maximum displ.:     0.2036696 α      in ANC's #2, #4, #3, ...

   *** GEOMETRY OPTIMIZATION CONVERGED AFTER 117 ITERATIONS ***

------------------------------------------------------------------------
 total energy gain   :        -0.4813459 Eh     -302.0491 kcal/mol
 total RMSD          :         4.9398310 a0        2.6140 Å
 total power (kW/mol):       -10.8014833 (step)  -54.2405 (real)
------------------------------------------------------------------------

 ANCopt (total)                0 d,  0 h,  0 min, 23.300 sec
 optimizer setup                ...        0 min,  0.000 sec (  0.001%)
 model hessian                  ...        0 min,  0.095 sec (  0.409%)
 ANC generation                 ...        0 min,  0.028 sec (  0.122%)
 coordinate transformation      ...        0 min,  0.009 sec (  0.037%)
 single point calculation       ...        0 min, 23.113 sec ( 99.200%)
 optimization log               ...        0 min,  0.024 sec (  0.104%)
 hessian update                 ...        0 min,  0.006 sec (  0.025%)
 rational function              ...        0 min,  0.019 sec (  0.080%)

================
 final structure:
================
 xtb: 6.7.1 (edcfbbe)
          08252607103D

 95107  0     0  0            999 V2000
   -3.0970   -9.2375   -0.7904 C   0  0  0  0  0  0  0  0  0  0  0  0
    0.0780    4.0732   -2.1797 C   0  0  0  0  0  0  0  0  0  0  0  0
   -4.3538    5.5886   -0.7870 S   0  0  0  0  0  0  0  0  0  0  0  0
    1.8320    0.0062   -2.6183 C   0  0  0  0  0  0  0  0  0  0  0  0
    1.9351   -5.9440   -4.8075 H   0  0  0  0  0  0  0  0  0  0  0  0
    0.3305    4.2465    4.1415 H   0  0  0  0  0  0  0  0  0  0  0  0
    2.2702    5.0706    0.4936 C   0  0  0  0  0  0  0  0  0  0  0  0
    1.0606    0.5731    1.4526 C   0  0  0  0  0  0  0  0  0  0  0  0
   -3.0021   -0.8735    3.4386 C   0  0  0  0  0  0  0  0  0  0  0  0
    4.3898    5.9156    1.5135 C   0  0  0  0  0  0  0  0  0  0  0  0
    1.3230    1.6349    2.2716 C   0  0  0  0  0  0  0  0  0  0  0  0
    2.9057   -3.5558   -5.4786 H   0  0  0  0  0  0  0  0  0  0  0  0
    2.2078    0.9453   -2.9973 H   0  0  0  0  0  0  0  0  0  0  0  0
    1.8904    0.2488    0.8371 H   0  0  0  0  0  0  0  0  0  0  0  0
    2.0751    2.9092   -4.7634 H   0  0  0  0  0  0  0  0  0  0  0  0
    1.3047   -5.9075   -3.9325 C   0  0  0  0  0  0  0  0  0  0  0  0
   -1.2203    4.0142   -2.6919 C   0  0  0  0  0  0  0  0  0  0  0  0
    2.0608   -1.1881   -3.2989 C   0  0  0  0  0  0  0  0  0  0  0  0
   -3.2710    4.4346   -2.8517 H   0  0  0  0  0  0  0  0  0  0  0  0
   -2.5034   -8.8202    1.4918 C   0  0  0  0  0  0  0  0  0  0  0  0
   -1.1820    2.5479    4.4267 H   0  0  0  0  0  0  0  0  0  0  0  0
    2.5140   -2.9721   -4.6644 C   0  0  0  0  0  0  0  0  0  0  0  0
   -2.2650    5.3798    1.1046 H   0  0  0  0  0  0  0  0  0  0  0  0
   -0.3450   -5.9542   -1.7429 C   0  0  0  0  0  0  0  0  0  0  0  0
   -0.8341   -3.6122   -0.1875 C   0  0  0  0  0  0  0  0  0  0  0  0
    3.8358    3.8974    4.5251 N   0  0  0  0  0  0  0  0  0  0  0  0
    0.8967    0.9562   -0.9715 H   0  0  0  0  0  0  0  0  0  0  0  0
    2.7290   -1.6157   -4.4828 C   0  0  0  0  0  0  0  0  0  0  0  0
   -0.1799   -1.2569    0.3444 C   0  0  0  0  0  0  0  0  0  0  0  0
   -2.0910   -1.2143    2.3854 C   0  0  0  0  0  0  0  0  0  0  0  0
   -0.7187    1.9270    3.6665 C   0  0  0  0  0  0  0  0  0  0  0  0
    5.2299    5.5429    3.3910 H   0  0  0  0  0  0  0  0  0  0  0  0
   -3.5029    7.3261    0.6470 H   0  0  0  0  0  0  0  0  0  0  0  0
    0.2772   -4.7288   -2.0880 C   0  0  0  0  0  0  0  0  0  0  0  0
   -1.1158   -0.1883    2.3105 C   0  0  0  0  0  0  0  0  0  0  0  0
    1.1233   -4.7010   -3.2473 C   0  0  0  0  0  0  0  0  0  0  0  0
    2.3232    2.0436    2.1693 H   0  0  0  0  0  0  0  0  0  0  0  0
    0.6658   -2.3638   -1.6410 C   0  0  0  0  0  0  0  0  0  0  0  0
    5.2555    6.5281    1.2944 H   0  0  0  0  0  0  0  0  0  0  0  0
   -0.1071   -0.2322    1.3415 C   0  0  0  0  0  0  0  0  0  0  0  0
   -2.1159   -4.9161    0.9665 H   0  0  0  0  0  0  0  0  0  0  0  0
   -2.4791   -7.7570   -2.2055 H   0  0  0  0  0  0  0  0  0  0  0  0
    4.8206    3.9897    4.7189 H   0  0  0  0  0  0  0  0  0  0  0  0
   -0.1255   -7.0864   -2.4210 N   0  0  0  0  0  0  0  0  0  0  0  0
   -1.8360    5.0788    0.1576 C   0  0  0  0  0  0  0  0  0  0  0  0
   -3.5699   -9.8606   -1.5355 H   0  0  0  0  0  0  0  0  0  0  0  0
   -2.4834   -8.0589   -1.1703 C   0  0  0  0  0  0  0  0  0  0  0  0
    1.1720    3.2269   -4.2704 C   0  0  0  0  0  0  0  0  0  0  0  0
    3.5149    5.7093    0.4643 C   0  0  0  0  0  0  0  0  0  0  0  0
   -5.2801    7.2540    0.5917 H   0  0  0  0  0  0  0  0  0  0  0  0
   -1.8934   -7.6380    1.1161 C   0  0  0  0  0  0  0  0  0  0  0  0
   -3.8444   -1.4703    3.7377 H   0  0  0  0  0  0  0  0  0  0  0  0
   -4.3944    6.0818    1.5864 H   0  0  0  0  0  0  0  0  0  0  0  0
   -1.2211   -5.9850   -0.6078 C   0  0  0  0  0  0  0  0  0  0  0  0
    1.1919    3.6211   -2.9975 C   0  0  0  0  0  0  0  0  0  0  0  0
    0.2841    3.2035   -4.8791 H   0  0  0  0  0  0  0  0  0  0  0  0
   -2.6838   -3.1450    1.7215 H   0  0  0  0  0  0  0  0  0  0  0  0
   -4.3684    6.6705    0.6735 C   0  0  0  0  0  0  0  0  0  0  0  0
   -1.4164    0.7683    3.3344 C   0  0  0  0  0  0  0  0  0  0  0  0
    0.8159   -7.9996   -3.9694 H   0  0  0  0  0  0  0  0  0  0  0  0
    1.4377   -2.3451   -2.7783 C   0  0  0  0  0  0  0  0  0  0  0  0
    1.1279    3.5623    3.8372 C   0  0  0  0  0  0  0  0  0  0  0  0
    4.3654    5.3499    2.7673 C   0  0  0  0  0  0  0  0  0  0  0  0
   -0.4592    4.7863    0.2206 C   0  0  0  0  0  0  0  0  0  0  0  0
   -1.4459   -4.8448    0.1229 C   0  0  0  0  0  0  0  0  0  0  0  0
   -2.4120    4.4871   -2.1945 C   0  0  0  0  0  0  0  0  0  0  0  0
    3.4096    4.4834    3.3464 C   0  0  0  0  0  0  0  0  0  0  0  0
    1.6156    3.2638    4.7670 H   0  0  0  0  0  0  0  0  0  0  0  0
    0.6753   -7.0495   -3.4681 C   0  0  0  0  0  0  0  0  0  0  0  0
    0.0389   -3.5841   -1.2901 C   0  0  0  0  0  0  0  0  0  0  0  0
    1.7001   -3.4622   -3.6154 C   0  0  0  0  0  0  0  0  0  0  0  0
    0.5450   -1.1663   -0.8796 C   0  0  0  0  0  0  0  0  0  0  0  0
    3.4636    2.9963    4.7709 H   0  0  0  0  0  0  0  0  0  0  0  0
    2.1384    3.6374   -2.4744 H   0  0  0  0  0  0  0  0  0  0  0  0
   -3.0888    0.8363    4.7891 H   0  0  0  0  0  0  0  0  0  0  0  0
   -2.6767    5.0293   -0.9273 C   0  0  0  0  0  0  0  0  0  0  0  0
   -2.6080    0.3136    3.9822 C   0  0  0  0  0  0  0  0  0  0  0  0
   -0.5194    4.7072    2.3296 H   0  0  0  0  0  0  0  0  0  0  0  0
   -1.9820   -2.3364    1.5869 C   0  0  0  0  0  0  0  0  0  0  0  0
   -3.5826  -10.5486    0.8336 H   0  0  0  0  0  0  0  0  0  0  0  0
    1.0950    0.0037   -1.4436 C   0  0  0  0  0  0  0  0  0  0  0  0
   -1.0061   -2.4079    0.5859 C   0  0  0  0  0  0  0  0  0  0  0  0
    2.0901    4.2981    2.9259 C   0  0  0  0  0  0  0  0  0  0  0  0
   -1.8716   -7.2439   -0.2206 C   0  0  0  0  0  0  0  0  0  0  0  0
   -2.5040   -9.1185    2.5306 H   0  0  0  0  0  0  0  0  0  0  0  0
    1.5293    4.7110    1.6864 C   0  0  0  0  0  0  0  0  0  0  0  0
   -3.1075   -9.6239    0.5397 C   0  0  0  0  0  0  0  0  0  0  0  0
    3.3052   -0.9844   -5.1359 H   0  0  0  0  0  0  0  0  0  0  0  0
    0.1462    4.7224    1.4807 C   0  0  0  0  0  0  0  0  0  0  0  0
    3.7937    6.0932   -0.5070 H   0  0  0  0  0  0  0  0  0  0  0  0
   -1.4043   -7.0247    1.8597 H   0  0  0  0  0  0  0  0  0  0  0  0
    0.4378    4.5703   -0.8913 C   0  0  0  0  0  0  0  0  0  0  0  0
    1.7176    4.8412   -0.6933 N   0  0  0  0  0  0  0  0  0  0  0  0
   -1.2941    3.5885   -3.6834 H   0  0  0  0  0  0  0  0  0  0  0  0
    0.5173    2.3288    3.2042 C   0  0  0  0  0  0  0  0  0  0  0  0
  1 46  1  0  0  0  0
  1 47  4  0  0  0  0
  1 87  4  0  0  0  0
  2 17  2  0  0  0  0
  2 55  1  0  0  0  0
  2 92  1  0  0  0  0
  3 58  1  0  0  0  0
  3 76  1  0  0  0  0
  4 13  1  0  0  0  0
  4 18  4  0  0  0  0
  4 81  4  0  0  0  0
  5 16  1  0  0  0  0
  6 62  1  0  0  0  0
  7 49  2  0  0  0  0
  7 86  4  0  0  0  0
  7 93  4  0  0  0  0
  8 11  4  0  0  0  0
  8 14  1  0  0  0  0
  8 40  4  0  0  0  0
  9 30  4  0  0  0  0
  9 52  1  0  0  0  0
  9 77  4  0  0  0  0
 10 39  1  0  0  0  0
 10 49  1  0  0  0  0
 10 63  2  0  0  0  0
 11 37  1  0  0  0  0
 11 95  4  0  0  0  0
 12 22  1  0  0  0  0
 15 48  1  0  0  0  0
 16 36  4  0  0  0  0
 16 69  4  0  0  0  0
 17 66  1  0  0  0  0
 17 94  1  0  0  0  0
 18 28  4  0  0  0  0
 18 61  4  0  0  0  0
 19 66  1  0  0  0  0
 20 51  4  0  0  0  0
 20 85  1  0  0  0  0
 20 87  4  0  0  0  0
 21 31  1  0  0  0  0
 22 28  4  0  0  0  0
 22 71  4  0  0  0  0
 23 45  1  0  0  0  0
 24 34  4  0  0  0  0
 24 44  4  0  0  0  0
 24 54  4  0  0  0  0
 25 65  4  0  0  0  0
 25 70  4  0  0  0  0
 25 82  4  0  0  0  0
 26 43  1  0  0  0  0
 26 67  1  0  0  0  0
 26 73  1  0  0  0  0
 27 81  1  0  0  0  0
 28 88  1  0  0  0  0
 29 40  4  0  0  0  0
 29 72  4  0  0  0  0
 29 82  4  0  0  0  0
 30 35  4  0  0  0  0
 30 79  4  0  0  0  0
 31 59  4  0  0  0  0
 31 95  4  0  0  0  0
 32 63  1  0  0  0  0
 33 58  1  0  0  0  0
 34 36  4  0  0  0  0
 34 70  4  0  0  0  0
 35 40  4  0  0  0  0
 35 59  4  0  0  0  0
 36 71  4  0  0  0  0
 38 61  4  0  0  0  0
 38 70  4  0  0  0  0
 38 72  4  0  0  0  0
 41 65  1  0  0  0  0
 42 47  1  0  0  0  0
 44 69  4  0  0  0  0
 45 64  2  0  0  0  0
 45 76  1  0  0  0  0
 47 84  4  0  0  0  0
 48 55  2  0  0  0  0
 48 56  1  0  0  0  0
 49 90  1  0  0  0  0
 50 58  1  0  0  0  0
 51 84  4  0  0  0  0
 51 91  1  0  0  0  0
 53 58  1  0  0  0  0
 54 65  4  0  0  0  0
 54 84  1  0  0  0  0
 55 74  1  0  0  0  0
 57 79  1  0  0  0  0
 59 77  4  0  0  0  0
 60 69  1  0  0  0  0
 61 71  4  0  0  0  0
 62 68  1  0  0  0  0
 62 83  1  0  0  0  0
 62 95  1  0  0  0  0
 63 67  1  0  0  0  0
 64 89  4  0  0  0  0
 64 92  4  0  0  0  0
 66 76  2  0  0  0  0
 67 83  2  0  0  0  0
 72 81  4  0  0  0  0
 75 77  1  0  0  0  0
 78 89  1  0  0  0  0
 79 82  4  0  0  0  0
 80 87  1  0  0  0  0
 83 86  1  0  0  0  0
 86 89  4  0  0  0  0
 92 93  4  0  0  0  0
M  END
$$$$

 Bond Distances (Angstroems)
 ---------------------------
C1-H46=1.0803        C1-C47=1.3820        C1-C87=1.3851        C2-C17=1.3969        C2-C55=1.4539        C2-C92=1.4270        
S3-C58=1.8176        S3-C76=1.7734        C4-H13=1.0802        C4-C18=1.3935        C4-C81=1.3867        H5-C16=1.0790        
H6-C62=1.0939        C7-C49=1.3994        C7-C86=1.4495        C7-N93=1.3292        C8-C11=1.3664        C8-H14=1.0828        
C8-C40=1.4228        C9-C30=1.4337        C9-H52=1.0748        C9-C77=1.3638        C10-H39=1.0829       C10-C49=1.3816       
C10-C63=1.3757       C11-C8=1.3664        C11-H37=1.0853       C11-C95=1.4144       H12-C22=1.0756       H13-C4=1.0802        
H14-C8=1.0828        H15-C48=1.0767       C16-H5=1.0790        C16-C36=1.3994       C16-C69=1.3842       C17-C2=1.3969        
C17-C66=1.3752       C17-H94=1.0816       C18-C4=1.3935        C18-C28=1.4252       C18-C61=1.4134       H19-C66=1.0829       
C20-C51=1.3823       C20-H85=1.0808       C20-C87=1.3846       H21-C31=1.0854       C22-H12=1.0756       C22-C28=1.3853       
C22-C71=1.4153       H23-C45=1.0824       C24-C34=1.4169       C24-N44=1.3379       C24-C54=1.4342       C25-C65=1.4107       
C25-C70=1.4066       C25-C82=1.4416       N26-H43=1.0079       N26-C67=1.3836       N26-H73=1.0055       H27-C81=1.0814       
C28-C18=1.4252       C28-C22=1.3853       C28-H88=1.0757       C29-C40=1.4316       C29-C72=1.4255       C29-C82=1.4373       
C30-C9=1.4337        C30-C35=1.4175       C30-C79=1.3815       C31-H21=1.0854       C31-C59=1.3927       C31-C95=1.3794       
H32-C63=1.0833       H33-C58=1.0861       C34-C24=1.4169       C34-C36=1.4355       C34-C70=1.4155       C35-C30=1.4175       
C35-C40=1.3994       C35-C59=1.4331       C36-C16=1.3994       C36-C34=1.4355       C36-C71=1.4152       H37-C11=1.0853       
C38-C61=1.3747       C38-C70=1.4161       C38-C72=1.4242       H39-C10=1.0829       C40-C8=1.4228        C40-C29=1.4316       
C40-C35=1.3994       H41-C65=1.0796       H42-C47=1.0783       H43-N26=1.0079       N44-C24=1.3379       N44-C69=1.3187       
C45-H23=1.0824       C45-C64=1.4089       C45-C76=1.3734       H46-C1=1.0803        C47-C1=1.3820        C47-H42=1.0783       
C47-C84=1.3930       C48-H15=1.0767       C48-C55=1.3327       C48-H56=1.0768       C49-C7=1.3994        C49-C10=1.3816       
C49-H90=1.0810       H50-C58=1.0856       C51-C20=1.3823       C51-C84=1.3938       C51-H91=1.0809       H52-C9=1.0748        
H53-C58=1.0866       C54-C24=1.4342       C54-C65=1.3728       C54-C84=1.4690       C55-C2=1.4539        C55-C48=1.3327       
C55-H74=1.0816       H56-C48=1.0768       H57-C79=1.0791       C58-S3=1.8176        C58-H33=1.0861       C58-H50=1.0856       
C58-H53=1.0866       C59-C31=1.3927       C59-C35=1.4331       C59-C77=1.4305       H60-C69=1.0834       C61-C18=1.4134       
C61-C38=1.3747       C61-C71=1.4204       C62-H6=1.0939        C62-H68=1.0915       C62-C83=1.5158       C62-C95=1.5150       
C63-C10=1.3757       C63-H32=1.0833       C63-C67=1.4141       C64-C45=1.4089       C64-C89=1.3994       C64-C92=1.4449       
C65-C25=1.4107       C65-H41=1.0796       C65-C54=1.3728       C66-C17=1.3752       C66-H19=1.0829       C66-C76=1.4035       
C67-N26=1.3836       C67-C63=1.4141       C67-C83=1.3972       H68-C62=1.0915       C69-C16=1.3842       C69-N44=1.3187       
C69-H60=1.0834       C70-C25=1.4066       C70-C34=1.4155       C70-C38=1.4161       C71-C22=1.4153       C71-C36=1.4152       
C71-C61=1.4204       C72-C29=1.4255       C72-C38=1.4242       C72-C81=1.4105       H73-N26=1.0055       H74-C55=1.0816       
H75-C77=1.0750       C76-S3=1.7734        C76-C45=1.3734       C76-C66=1.4035       C77-C9=1.3638        C77-C59=1.4305       
C77-H75=1.0750       H78-C89=1.0788       C79-C30=1.3815       C79-H57=1.0791       C79-C82=1.3998       H80-C87=1.0804       
C81-C4=1.3867        C81-H27=1.0814       C81-C72=1.4105       C82-C25=1.4416       C82-C29=1.4373       C82-C79=1.3998       
C83-C62=1.5158       C83-C67=1.3972       C83-C86=1.4217       C84-C47=1.3930       C84-C51=1.3938       C84-C54=1.4690       
H85-C20=1.0808       C86-C7=1.4495        C86-C83=1.4217       C86-C89=1.3984       C87-C1=1.3851        C87-C20=1.3846       
C87-H80=1.0804       H88-C28=1.0757       C89-C64=1.3994       C89-H78=1.0788       C89-C86=1.3984       H90-C49=1.0810       
H91-C51=1.0809       C92-C2=1.4270        C92-C64=1.4449       C92-N93=1.3231       N93-C7=1.3292        N93-C92=1.3231       
H94-C17=1.0816       C95-C11=1.4144       C95-C31=1.3794       C95-C62=1.5150       
 C  H  Rav=1.0815 sigma=0.0043  Rmin=1.0748  Rmax=1.0939    33
 C  C  Rav=1.4092 sigma=0.0311  Rmin=1.3327  Rmax=1.5158    65
 N  H  Rav=1.0067 sigma=0.0012  Rmin=1.0055  Rmax=1.0079     2
 N  C  Rav=1.3385 sigma=0.0235  Rmin=1.3187  Rmax=1.3836     5
 S  C  Rav=1.7955 sigma=0.0221  Rmin=1.7734  Rmax=1.8176     2

 selected bond angles (degree)
 --------------------
C47-C1-H46=119.78              C87-C1-H46=119.87              C87-C1-C47=120.35              C55-C2-C17=119.52              
C92-C2-C17=125.45              C92-C2-C55=115.02              C76-S3-C58=105.01              C18-C4-H13=121.10              
C81-C4-H13=118.93              C81-C4-C18=119.96              C86-C7-C49=125.81              N93-C7-C49=115.46              
N93-C7-C86=118.66              H14-C8-C11=115.23              C40-C8-C11=130.10              C40-C8-H14=114.52              
H52-C9-C30=124.79              C77-C9-C30=108.43              C77-C9-H52=126.79              C49-C10-H39=115.91             
C63-C10-H39=115.55             C63-C10-C49=128.28             

 selected dihedral angles (degree)
 ---------------------------------

           -------------------------------------------------
          |                Final Singlepoint                |
           -------------------------------------------------

          ...................................................
          :                      SETUP                      :
          :.................................................:
          :  # basis functions                 281          :
          :  # atomic orbitals                 280          :
          :  # shells                          156          :
          :  # electrons                       280          :
          :  max. iterations                   250          :
          :  Hamiltonian                  GFN2-xTB          :
          :  restarted?                      false          :
          :  GBSA solvation                  false          :
          :  PC potential                    false          :
          :  electronic temp.          300.0000000     K    :
          :  accuracy                    1.0000000          :
          :  -> integral cutoff          0.2500000E+02      :
          :  -> integral neglect         0.1000000E-07      :
          :  -> SCF convergence          0.1000000E-05 Eh   :
          :  -> wf. convergence          0.1000000E-03 e    :
          :  Broyden damping             0.4000000          :
          :  net charge                          0          :
          :  unpaired electrons                  0          :
          ...................................................

 iter      E             dE          RMSdq      gap      omega  full diag
   1   -152.4268736 -0.152427E+03  0.736E-05    0.24       0.0  T
   2   -152.4268736  0.249150E-08  0.114E-04    0.24      89.7  T
   3   -152.4268736 -0.163510E-09  0.113E-04    0.24      90.6  T

   *** convergence criteria satisfied after 3 iterations ***

         #    Occupation            Energy/Eh            Energy/eV
      -------------------------------------------------------------
         1        2.0000           -0.7208334             -19.6149
       ...           ...                  ...                  ...
       134        2.0000           -0.3739705             -10.1763
       135        2.0000           -0.3646280              -9.9220
       136        2.0000           -0.3592792              -9.7765
       137        2.0000           -0.3533848              -9.6161
       138        2.0000           -0.3487636              -9.4903
       139        2.0000           -0.3363738              -9.1532
       140        1.9812           -0.3306542              -8.9976 (HOMO)
       141        0.0189           -0.3218080              -8.7568 (LUMO)
       142                         -0.2927425              -7.9659
       143                         -0.2897213              -7.8837
       144                         -0.2854988              -7.7688
       145                         -0.2650599              -7.2126
       ...                                ...                  ...
       280                          0.7708112              20.9748
      -------------------------------------------------------------
                  HL-Gap            0.0088462 Eh            0.2407 eV
             Fermi-level           -0.3262299 Eh           -8.8772 eV

 SCC (total)                   0 d,  0 h,  0 min,  0.139 sec
 SCC setup                      ...        0 min,  0.001 sec (  0.442%)
 Dispersion                     ...        0 min,  0.002 sec (  1.183%)
 classical contributions        ...        0 min,  0.000 sec (  0.249%)
 integral evaluation            ...        0 min,  0.021 sec ( 15.292%)
 iterations                     ...        0 min,  0.033 sec ( 23.331%)
 molecular gradient             ...        0 min,  0.082 sec ( 58.574%)
 printout                       ...        0 min,  0.001 sec (  0.918%)

         :::::::::::::::::::::::::::::::::::::::::::::::::::::
         ::                     SUMMARY                     ::
         :::::::::::::::::::::::::::::::::::::::::::::::::::::
         :: total energy            -149.679483383762 Eh    ::
         :: gradient norm              0.002642686398 Eh/a0 ::
         :: HOMO-LUMO gap              0.240718096742 eV    ::
         ::.................................................::
         :: SCC energy              -152.424323103953 Eh    ::
         :: -> isotropic ES            0.036173612940 Eh    ::
         :: -> anisotropic ES          0.015748252614 Eh    ::
         :: -> anisotropic XC          0.089309079700 Eh    ::
         :: -> dispersion             -0.147270487325 Eh    ::
         :: repulsion energy           2.744839720191 Eh    ::
         :: add. restraining           0.000000000000 Eh    ::
         :: total charge               0.000000000024 e     ::
         :::::::::::::::::::::::::::::::::::::::::::::::::::::

           -------------------------------------------------
          |                Property Printout                |
           -------------------------------------------------

    * Orbital Energies and Occupations

         #    Occupation            Energy/Eh            Energy/eV
      -------------------------------------------------------------
         1        2.0000           -0.7208334             -19.6149
       ...           ...                  ...                  ...
       128        2.0000           -0.3970514             -10.8043
       129        2.0000           -0.3951882             -10.7536
       130        2.0000           -0.3950816             -10.7507
       131        2.0000           -0.3932099             -10.6998
       132        2.0000           -0.3845817             -10.4650
       133        2.0000           -0.3827197             -10.4143
       134        2.0000           -0.3739705             -10.1763
       135        2.0000           -0.3646280              -9.9220
       136        2.0000           -0.3592792              -9.7765
       137        2.0000           -0.3533848              -9.6161
       138        2.0000           -0.3487636              -9.4903
       139        2.0000           -0.3363738              -9.1532
       140        1.9812           -0.3306542              -8.9976 (HOMO)
       141        0.0189           -0.3218080              -8.7568 (LUMO)
       142                         -0.2927425              -7.9659
       143                         -0.2897213              -7.8837
       144                         -0.2854988              -7.7688
       145                         -0.2650599              -7.2126
       146                         -0.2492188              -6.7816
       147                         -0.2413372              -6.5671
       148                         -0.2376948              -6.4680
       149                         -0.2232400              -6.0747
       150                         -0.2176899              -5.9236
       151                         -0.2145540              -5.8383
       ...                                ...                  ...
       280                          0.7708112              20.9748
      -------------------------------------------------------------
                  HL-Gap            0.0088462 Eh            0.2407 eV
             Fermi-level           -0.3262299 Eh           -8.8772 eV

     #   Z          covCN         q      C6AA      α(0)
     1   6 C        2.919    -0.028    28.705     8.786
     2   6 C        2.961    -0.004    28.133     8.700
     3  16 S        2.089    -0.151   147.413    20.435
     4   6 C        2.913    -0.027    28.687     8.783
     5   1 H        0.926     0.031     2.566     2.505
     6   1 H        0.924     0.053     2.285     2.364
     7   6 C        2.931     0.102    25.750     8.322
     8   6 C        2.901    -0.023    28.567     8.764
     9   6 C        3.005    -0.038    28.921     8.822
    10   6 C        2.893    -0.019    28.480     8.750
    11   6 C        2.897    -0.027    28.674     8.780
    12   1 H        0.926     0.018     2.767     2.601
    13   1 H        0.926     0.032     2.560     2.502
    14   1 H        0.925     0.056     2.244     2.342
    15   1 H        0.926     0.036     2.497     2.471
    16   6 C        2.910    -0.049    29.209     8.862
    17   6 C        2.900    -0.023    28.588     8.767
    18   6 C        3.063    -0.012    28.239     8.714
    19   1 H        0.925     0.044     2.392     2.419
    20   6 C        2.918    -0.031    28.762     8.795
    21   1 H        0.925     0.041     2.440     2.443
    22   6 C        3.028    -0.048    29.153     8.856
    23   1 H        0.925     0.034     2.534     2.489
    24   6 C        2.966     0.088    26.035     8.369
    25   6 C        2.976     0.006    27.875     8.660
    26   7 N        2.651    -0.272    27.036     7.722
    27   1 H        0.925     0.022     2.710     2.574
    28   6 C        3.034    -0.042    29.009     8.834
    29   6 C        2.984    -0.011    28.276     8.723
    30   6 C        3.092    -0.008    28.118     8.691
    31   6 C        2.902    -0.028    28.697     8.784
    32   1 H        0.925     0.030     2.591     2.517
    33   1 H        0.925     0.060     2.205     2.322
    34   6 C        2.991    -0.015    28.369     8.737
    35   6 C        3.083    -0.004    28.023     8.678
    36   6 C        2.981     0.022    27.512     8.604
    37   1 H        0.925     0.041     2.433     2.439
    38   6 C        2.998     0.009    27.795     8.648
    39   1 H        0.925     0.038     2.479     2.462
    40   6 C        2.962     0.026    27.414     8.588
    41   1 H        0.926     0.034     2.525     2.485
    42   1 H        0.926     0.046     2.365     2.405
    43   1 H        0.860     0.165     1.301     1.787
    44   7 N        1.840    -0.247    27.299     7.743
    45   6 C        2.950    -0.060    29.483     8.906
    46   1 H        0.926     0.031     2.572     2.508
    47   6 C        2.924    -0.024    28.594     8.769
    48   6 C        2.836    -0.087    30.176     9.002
    49   6 C        2.916    -0.061    29.506     8.908
    50   1 H        0.925     0.064     2.151     2.293
    51   6 C        2.925    -0.033    28.834     8.806
    52   1 H        0.926     0.031     2.569     2.506
    53   1 H        0.925     0.053     2.279     2.361
    54   6 C        2.973     0.004    27.932     8.669
    55   6 C        2.903    -0.028    28.708     8.785
    56   1 H        0.926     0.033     2.542     2.493
    57   1 H        0.926     0.044     2.398     2.422
    58   6 C        3.744    -0.052    21.587     6.628
    59   6 C        3.064     0.014    27.636     8.620
    60   1 H        0.925     0.028     2.616     2.529
    61   6 C        3.171    -0.021    28.145     8.666
    62   6 C        3.820    -0.068    21.778     6.641
    63   6 C        2.909    -0.070    29.742     8.942
    64   6 C        2.961     0.009    27.825     8.652
    65   6 C        2.922    -0.044    29.090     8.845
    66   6 C        2.995    -0.048    29.186     8.862
    67   6 C        2.879     0.085    26.114     8.377
    68   1 H        0.924     0.053     2.284     2.363
    69   6 C        2.897     0.059    26.677     8.468
    70   6 C        3.000    -0.003    28.088     8.694
    71   6 C        3.064    -0.013    28.264     8.718
    72   6 C        2.976     0.006    27.885     8.662
    73   1 H        0.860     0.167     1.294     1.782
    74   1 H        0.925     0.056     2.248     2.344
    75   1 H        0.926     0.026     2.641     2.541
    76   6 C        2.940     0.056    26.742     8.481
    77   6 C        3.022    -0.054    29.324     8.883
    78   1 H        0.926     0.023     2.694     2.567
    79   6 C        2.915    -0.021    28.528     8.758
    80   1 H        0.926     0.028     2.613     2.528
    81   6 C        2.917    -0.051    29.272     8.872
    82   6 C        2.976     0.001    28.005     8.681
    83   6 C        2.956    -0.030    28.748     8.794
    84   6 C        2.978     0.020    27.567     8.613
    85   1 H        0.926     0.027     2.625     2.534
    86   6 C        2.963     0.008    27.845     8.655
    87   6 C        2.920    -0.030    28.758     8.794
    88   1 H        0.926     0.020     2.731     2.584
    89   6 C        2.951    -0.068    29.692     8.937
    90   1 H        0.926     0.051     2.312     2.378
    91   1 H        0.926     0.027     2.623     2.533
    92   6 C        2.934     0.100    25.784     8.328
    93   7 N        1.875    -0.259    27.579     7.785
    94   1 H        0.925     0.051     2.304     2.374
    95   6 C        2.945     0.022    27.507     8.602

 Mol. C6AA /au·bohr⁶  :     143048.299765
 Mol. C8AA /au·bohr⁸  :    3763909.137746
 Mol. α(0) /au        :        612.490520


Wiberg/Mayer (AO) data.
largest (>0.10) Wiberg bond orders for each atom

 ---------------------------------------------------------------------------
     #   Z sym  total        # sym  WBO       # sym  WBO       # sym  WBO
 ---------------------------------------------------------------------------
     1   6 C    3.992 --    47 C    1.453    87 C    1.433    46 H    0.971
                            51 C    0.107
     2   6 C    3.908 --    17 C    1.346    92 C    1.213    55 C    1.122
     3  16 S    2.272 --    76 C    1.055    58 C    1.008
     4   6 C    3.958 --    81 C    1.470    18 C    1.347    13 H    0.966
     5   1 H    0.998 --    16 C    0.969
     6   1 H    0.992 --    62 C    0.949
     7   6 C    3.969 --    93 N    1.351    49 C    1.305    86 C    1.114
     8   6 C    3.938 --    11 C    1.555    40 C    1.224    14 H    0.957
     9   6 C    3.893 --    77 C    1.610    30 C    1.166    52 H    0.973
    10   6 C    3.978 --    63 C    1.461    49 C    1.408    39 H    0.968
    11   6 C    3.965 --     8 C    1.555    95 C    1.272    37 H    0.959
    12   1 H    0.999 --    22 C    0.973
    13   1 H    0.998 --     4 C    0.966
    14   1 H    0.996 --     8 C    0.957
    15   1 H    0.998 --    48 C    0.977
    16   6 C    3.915 --    69 C    1.425    36 C    1.341     5 H    0.969
    17   6 C    3.977 --    66 C    1.471     2 C    1.346    94 H    0.957
    18   6 C    3.954 --     4 C    1.347    28 C    1.224    61 C    1.203
    19   1 H    0.997 --    66 C    0.961
    20   6 C    3.991 --    51 C    1.452    87 C    1.434    85 H    0.971
                            47 C    0.108
    21   1 H    0.997 --    31 C    0.962
    22   6 C    3.934 --    28 C    1.510    71 C    1.282    12 H    0.973
    23   1 H    0.998 --    45 C    0.956
    24   6 C    3.975 --    44 N    1.336    34 C    1.256    54 C    1.174
    25   6 C    3.940 --    65 C    1.283    70 C    1.282    82 C    1.173
    26   7 N    3.257 --    67 C    1.170    43 H    0.951    73 H    0.941
    27   1 H    0.999 --    81 C    0.962
    28   6 C    3.836 --    22 C    1.510    18 C    1.224    88 H    0.974
    29   6 C    3.947 --    72 C    1.233    82 C    1.226    40 C    1.223
    30   6 C    3.958 --    79 C    1.391    35 C    1.230     9 C    1.166
    31   6 C    3.963 --    95 C    1.454    59 C    1.338    21 H    0.962
    32   1 H    0.999 --    63 C    0.961
    33   1 H    0.996 --    58 C    0.981
    34   6 C    3.979 --    70 C    1.262    24 C    1.256    36 C    1.215
    35   6 C    3.971 --    40 C    1.294    30 C    1.230    59 C    1.165
    36   6 C    3.984 --    16 C    1.341    71 C    1.229    34 C    1.215
    37   1 H    0.997 --    11 C    0.959
    38   6 C    3.973 --    61 C    1.357    70 C    1.201    72 C    1.190
    39   1 H    0.998 --    10 C    0.968
    40   6 C    3.950 --    35 C    1.294     8 C    1.224    29 C    1.223
    41   1 H    0.997 --    65 C    0.959
    42   1 H    0.998 --    47 C    0.967
    43   1 H    0.972 --    26 N    0.951
    44   7 N    2.972 --    69 C    1.443    24 C    1.336
    45   6 C    3.915 --    76 C    1.445    64 C    1.270    23 H    0.956
    46   1 H    0.998 --     1 C    0.971
    47   6 C    3.981 --     1 C    1.453    84 C    1.383    42 H    0.967
                            20 C    0.108
    48   6 C    3.901 --    55 C    1.850    15 H    0.977    56 H    0.970
    49   6 C    3.894 --    10 C    1.408     7 C    1.305    90 H    0.962
    50   1 H    0.995 --    58 C    0.978
    51   6 C    3.982 --    20 C    1.452    84 C    1.385    91 H    0.969
                             1 C    0.107
    52   1 H    0.998 --     9 C    0.973
    53   1 H    0.996 --    58 C    0.982
    54   6 C    3.935 --    65 C    1.522    24 C    1.174    84 C    1.053
    55   6 C    3.987 --    48 C    1.850     2 C    1.122    74 H    0.956
    56   1 H    0.999 --    48 C    0.970
    57   1 H    0.997 --    79 C    0.959
    58   6 C    3.976 --     3 S    1.008    53 H    0.982    33 H    0.981
                            50 H    0.978
    59   6 C    3.857 --    31 C    1.338    77 C    1.209    35 C    1.165
    60   1 H    0.998 --    69 C    0.963
    61   6 C    3.964 --    38 C    1.357    18 C    1.203    71 C    1.176
    62   6 C    3.992 --    83 C    1.000    95 C    1.000     6 H    0.949
                            68 H    0.940
    63   6 C    3.866 --    10 C    1.461    67 C    1.258    32 H    0.961
    64   6 C    3.976 --    89 C    1.353    45 C    1.270    92 C    1.127
    65   6 C    3.983 --    54 C    1.522    25 C    1.283    41 H    0.959
    66   6 C    3.887 --    17 C    1.471    76 C    1.287    19 H    0.961
    67   6 C    3.952 --    83 C    1.365    63 C    1.258    26 N    1.170
    68   1 H    0.989 --    62 C    0.940
    69   6 C    3.967 --    44 N    1.443    16 C    1.425    60 H    0.963
    70   6 C    3.983 --    25 C    1.282    34 C    1.262    38 C    1.201
    71   6 C    3.876 --    22 C    1.282    36 C    1.229    61 C    1.176
    72   6 C    3.964 --    81 C    1.327    29 C    1.233    38 C    1.190
    73   1 H    0.972 --    26 N    0.941
    74   1 H    0.996 --    55 C    0.956
    75   1 H    0.998 --    77 C    0.972
    76   6 C    3.939 --    45 C    1.445    66 C    1.287     3 S    1.055
    77   6 C    3.960 --     9 C    1.610    59 C    1.209    75 H    0.972
    78   1 H    0.998 --    89 C    0.953
    79   6 C    3.910 --    30 C    1.391    82 C    1.356    57 H    0.959
    80   1 H    0.999 --    87 C    0.972
    81   6 C    3.960 --     4 C    1.470    72 C    1.327    27 H    0.962
    82   6 C    3.958 --    79 C    1.356    29 C    1.226    25 C    1.173
    83   6 C    3.882 --    67 C    1.365    86 C    1.253    62 C    1.000
    84   6 C    3.986 --    51 C    1.385    47 C    1.383    54 C    1.053
                            87 C    0.104
    85   1 H    0.999 --    20 C    0.971
    86   6 C    3.970 --    89 C    1.368    83 C    1.253     7 C    1.114
    87   6 C    3.982 --    20 C    1.434     1 C    1.433    80 H    0.972
                            84 C    0.104
    88   1 H    0.999 --    28 C    0.974
    89   6 C    3.963 --    86 C    1.368    64 C    1.353    78 H    0.953
    90   1 H    0.996 --    49 C    0.962
    91   1 H    0.999 --    51 C    0.969
    92   6 C    3.966 --    93 N    1.401     2 C    1.213    64 C    1.127
    93   7 N    3.141 --    92 C    1.401     7 C    1.351
    94   1 H    0.996 --    17 C    0.957
    95   6 C    3.866 --    31 C    1.454    11 C    1.272    62 C    1.000
 ---------------------------------------------------------------------------

Topologies differ in bond orders
Writing corrected topology to xtbtopo.sdf

molecular dipole:
                 x           y           z       tot (Debye)
 q only:        0.394       1.827       2.719
   full:        0.652       2.098       3.172       9.808
molecular quadrupole (traceless):
                xx          xy          yy          xz          yz          zz
 q only:        6.792       8.230     -15.440      12.755      10.649       8.647
  q+dip:        5.965      10.505     -24.469       3.581      20.932      18.504
   full:        8.115       4.133     -23.511       9.980      17.286      15.396

           -------------------------------------------------
          |                Geometry Summary                 |
           -------------------------------------------------

      molecular mass/u    :      781.9640337
   center of mass at/Å    :       -0.0739529      -0.0837213      -0.1144338
  moments of inertia/u·Å² :        0.7784669E+04   0.2129697E+05   0.2263368E+05
rotational constants/cm⁻¹ :        0.2165491E-02   0.7915507E-03   0.7448028E-03

 * 97 selected distances

     #   Z          #   Z                                           value/Å
     8   6 C       11   6 C                                       1.3663899
     4   6 C       13   1 H                                       1.0801999
     8   6 C       14   1 H                                       1.0827818
     5   1 H       16   6 C                                       1.0790176
     2   6 C       17   6 C                                       1.3969456
     4   6 C       18   6 C                                       1.3935077
    12   1 H       22   6 C                                       1.0756154
    18   6 C       28   6 C                                       1.4251622
    22   6 C       28   6 C                                       1.3852662
     9   6 C       30   6 C                                       1.4336544
    21   1 H       31   6 C                                       1.0853826
    24   6 C       34   6 C                                       1.4169156
    30   6 C       35   6 C                                       1.4174865
    16   6 C       36   6 C                                       1.3994009
    34   6 C       36   6 C                                       1.4355245 (max)
    11   6 C       37   1 H                                       1.0853275
    10   6 C       39   1 H                                       1.0828927
     8   6 C       40   6 C                                       1.4228117
    29   6 C       40   6 C                                       1.4316145
    35   6 C       40   6 C                                       1.3993912
    26   7 N       43   1 H                                       1.0079468
    24   6 C       44   7 N                                       1.3379325
    23   1 H       45   6 C                                       1.0823559
     1   6 C       46   1 H                                       1.0803011
     1   6 C       47   6 C                                       1.3819734
    42   1 H       47   6 C                                       1.0783165
    15   1 H       48   6 C                                       1.0767400
     7   6 C       49   6 C                                       1.3993887
    10   6 C       49   6 C                                       1.3815667
    20   6 C       51   6 C                                       1.3822676
     9   6 C       52   1 H                                       1.0747803
    24   6 C       54   6 C                                       1.4342419
    48   6 C       55   6 C                                       1.3327190
    48   6 C       56   1 H                                       1.0767899
    33   1 H       58   6 C                                       1.0861217
    50   1 H       58   6 C                                       1.0855689
    53   1 H       58   6 C                                       1.0865587
    31   6 C       59   6 C                                       1.3927323
    35   6 C       59   6 C                                       1.4331445
    18   6 C       61   6 C                                       1.4134058
    38   6 C       61   6 C                                       1.3746769
     6   1 H       62   6 C                                       1.0939074
    10   6 C       63   6 C                                       1.3757400
    32   1 H       63   6 C                                       1.0833403
    45   6 C       64   6 C                                       1.4089455
    25   6 C       65   6 C                                       1.4106505
    41   1 H       65   6 C                                       1.0796417
    54   6 C       65   6 C                                       1.3727717
    17   6 C       66   6 C                                       1.3751720
    19   1 H       66   6 C                                       1.0829311
    26   7 N       67   6 C                                       1.3836026
    63   6 C       67   6 C                                       1.4140784
    62   6 C       68   1 H                                       1.0914940
    16   6 C       69   6 C                                       1.3841638
    44   7 N       69   6 C                                       1.3186884
    60   1 H       69   6 C                                       1.0834423
    25   6 C       70   6 C                                       1.4065745
    34   6 C       70   6 C                                       1.4155361
    38   6 C       70   6 C                                       1.4161288
    22   6 C       71   6 C                                       1.4153119
    36   6 C       71   6 C                                       1.4151694
    61   6 C       71   6 C                                       1.4204340
    29   6 C       72   6 C                                       1.4254663
    38   6 C       72   6 C                                       1.4241683
    26   7 N       73   1 H                                       1.0055239 (min)
    55   6 C       74   1 H                                       1.0815544
    45   6 C       76   6 C                                       1.3733985
    66   6 C       76   6 C                                       1.4035060
     9   6 C       77   6 C                                       1.3638184
    59   6 C       77   6 C                                       1.4304540
    75   1 H       77   6 C                                       1.0749945
    30   6 C       79   6 C                                       1.3815328
    57   1 H       79   6 C                                       1.0791039
     4   6 C       81   6 C                                       1.3867039
    27   1 H       81   6 C                                       1.0814333
    72   6 C       81   6 C                                       1.4104768
    79   6 C       82   6 C                                       1.3998243
    67   6 C       83   6 C                                       1.3972209
    47   6 C       84   6 C                                       1.3929777
    51   6 C       84   6 C                                       1.3937942
    20   6 C       85   1 H                                       1.0807712
    83   6 C       86   6 C                                       1.4217130
     1   6 C       87   6 C                                       1.3851287
    20   6 C       87   6 C                                       1.3846492
    80   1 H       87   6 C                                       1.0804256
    28   6 C       88   1 H                                       1.0756674
Note: The following floating-point exceptions are signalling: IEEE_UNDERFLOW_FLAG IEEE_DENORMAL
normal termination of xtb
    64   6 C       89   6 C                                       1.3993817
    78   1 H       89   6 C                                       1.0787695
    86   6 C       89   6 C                                       1.3984117
    49   6 C       90   1 H                                       1.0809954
    51   6 C       91   1 H                                       1.0809302
     2   6 C       92   6 C                                       1.4270193
     7   6 C       93   7 N                                       1.3292063
    92   6 C       93   7 N                                       1.3230635
    17   6 C       94   1 H                                       1.0815819
    11   6 C       95   6 C                                       1.4143640
    31   6 C       95   6 C                                       1.3794311

 * 4 distinct bonds (by element types)

   Z      Z             #   av. dist./Å        max./Å        min./Å
   1 H    6 C          33     1.0815071     1.0939074     1.0747803
   6 C    6 C          57     1.4013036     1.4355245     1.3327190
   1 H    7 N           2     1.0067353     1.0079468     1.0055239
   6 C    7 N           5     1.3384987     1.3836026     1.3186884


optimized geometry written to: xtbopt.sdf


           -------------------------------------------------
          | TOTAL ENERGY             -149.679483383762 Eh   |
          | GRADIENT NORM               0.002642686398 Eh/α |
          | HOMO-LUMO GAP               0.240718096742 eV   |
           -------------------------------------------------

------------------------------------------------------------------------
 * finished run on 2026/08/25 at 07:10:22.189     
------------------------------------------------------------------------
 total:
 * wall-time:     0 d,  0 h,  0 min, 23.845 sec
 *  cpu-time:     0 d,  0 h,  0 min, 23.819 sec
 * ratio c/w:     0.999 speedup
 SCF:
 * wall-time:     0 d,  0 h,  0 min,  0.358 sec
 *  cpu-time:     0 d,  0 h,  0 min,  0.358 sec
 * ratio c/w:     1.000 speedup
 ANC optimizer:
 * wall-time:     0 d,  0 h,  0 min, 23.446 sec
 *  cpu-time:     0 d,  0 h,  0 min, 23.429 sec
 * ratio c/w:     0.999 speedup

