      -----------------------------------------------------------      
     |                   =====================                   |     
     |                           x T B                           |     
     |                   =====================                   |     
     |                         S. Grimme                         |     
     |          Mulliken Center for Theoretical Chemistry        |     
     |                    University of Bonn                     |     
      -----------------------------------------------------------      

   * xtb version 6.7.1 (edcfbbe) compiled by 'conda@5dfe00f5fb80' on 2026-06-10

   xtb is free software: you can redistribute it and/or modify it under
   the terms of the GNU Lesser General Public License as published by
   the Free Software Foundation, either version 3 of the License, or
   (at your option) any later version.
   
   xtb is distributed in the hope that it will be useful,
   but WITHOUT ANY WARRANTY; without even the implied warranty of
   MERCHANTABILITY or FITNESS FOR A PARTICULAR PURPOSE.  See the
   GNU Lesser General Public License for more details.
   
   Cite this work as:
   * C. Bannwarth, E. Caldeweyher, S. Ehlert, A. Hansen, P. Pracht,
     J. Seibert, S. Spicher, S. Grimme, WIREs Comput. Mol. Sci., 2020, 11,
     e01493. DOI: 10.1002/wcms.1493
   
   for GFN2-xTB:
   * C. Bannwarth, S. Ehlert and S. Grimme., J. Chem. Theory Comput., 2019,
     15, 1652-1671. DOI: 10.1021/acs.jctc.8b01176
   for GFN1-xTB:
   * S. Grimme, C. Bannwarth, P. Shushkov, J. Chem. Theory Comput., 2017,
     13, 1989-2009. DOI: 10.1021/acs.jctc.7b00118
   for GFN0-xTB:
   * P. Pracht, E. Caldeweyher, S. Ehlert, S. Grimme, ChemRxiv, 2019, preprint.
     DOI: 10.26434/chemrxiv.8326202.v1
   for GFN-FF:
   * S. Spicher and S. Grimme, Angew. Chem. Int. Ed., 2020, 59, 15665-15673.
     DOI: 10.1002/anie.202004239
   
   for ALPB and GBSA implicit solvation:
   * S. Ehlert, M. Stahn, S. Spicher, S. Grimme, J. Chem. Theory Comput.,
     2021, 17, 4250-4261. DOI: 10.1021/acs.jctc.1c00471
   
   for ddCOSMO and CPCM-X implicit solvation:
   * M. Stahn, S. Ehlert, S. Grimme, J. Phys. Chem. A,
     2023, XX, XXXX-XXXX. DOI: 10.1021/acs.jpca.3c04382
   
   for DFT-D4:
   * E. Caldeweyher, C. Bannwarth and S. Grimme, J. Chem. Phys., 2017,
     147, 034112. DOI: 10.1063/1.4993215
   * E. Caldeweyher, S. Ehlert, A. Hansen, H. Neugebauer, S. Spicher,
     C. Bannwarth and S. Grimme, J. Chem. Phys., 2019, 150, 154122.
     DOI: 10.1063/1.5090222
   * E. Caldeweyher, J.-M. Mewes, S. Ehlert and S. Grimme, Phys. Chem. Chem. Phys.
     2020, 22, 8499-8512. DOI: 10.1039/D0CP00502A
   
   for sTDA-xTB:
   * S. Grimme and C. Bannwarth, J. Chem. Phys., 2016, 145, 054103.
     DOI: 10.1063/1.4959605
   
   in the mass-spec context:
   * V. Asgeirsson, C. Bauer and S. Grimme, Chem. Sci., 2017, 8, 4879.
     DOI: 10.1039/c7sc00601b
   * J. Koopman and S. Grimme, ACS Omega 2019, 4, 12, 15120-15133.
     DOI: 10.1021/acsomega.9b02011
   
   for metadynamics refer to:
   * S. Grimme, J. Chem. Theory Comput., 2019, 155, 2847-2862
     DOI: 10.1021/acs.jctc.9b00143
   
   for SPH calculations refer to:
   * S. Spicher and S. Grimme, J. Chem. Theory Comput., 2021, 17, 1701-1714
     DOI: 10.1021/acs.jctc.0c01306
   
   for ONIOM refer to:
   * C. Plett, A. Katbashev, S. Ehlert, S. Grimme, M. Bursch,
     Phys. Chem. Chem. Phys., 2023, 25, 17860-17868. DOI: 10.1039/D3CP02178E
   
   for DIPRO refer to:
   * J. Kohn, N. Gildemeister, S. Grimme, D. Fazzi, A. Hansen,
     J. Chem. Phys., 2023, just accepted.
   
   for PTB refer to:
   * S. Grimme, M. Mueller, A. Hansen, J. Chem. Phys., 2023, 158, 124111.
     DOI: 10.1063/5.0137838
   
   with help from (in alphabetical order)
   P. Atkinson, C. Bannwarth, F. Bohle, G. Brandenburg, E. Caldeweyher
   M. Checinski, S. Dohm, S. Ehlert, S. Ehrlich, I. Gerasimov, C. Hölzer
   A. Katbashev, J. Kohn, J. Koopman, C. Lavigne, S. Lehtola, F. März, M. Müller,
   F. Musil, H. Neugebauer, J. Pisarek, C. Plett, P. Pracht, F. Pultar,
   J. Seibert, P. Shushkov, S. Spicher, M. Stahn, M. Steiner, T. Strunk,
   J. Stückrath, T. Rose, and J. Unsleber
   
 * started run on 2026/08/20 at 06:25:58.400     
   ID    Z sym.   atoms
    1    1 H      1, 3, 5, 9, 10, 14, 18, 20, 21, 24, 26, 29, 31, 34, 36, 38,
                  39, 47, 49, 51, 58, 59, 62
    2    6 C      2, 6-8, 11, 13, 15, 17, 19, 22, 25, 27, 28, 30, 32, 33, 35,
                  37, 41-45, 48, 50, 52, 53, 56, 57, 60, 61
    3    7 N      4, 12, 23, 40, 46, 54, 55
    4    8 O      16

           -------------------------------------------------
          |                Calculation Setup                |
           -------------------------------------------------

          program call               : xtb 00030.sdf --opt loose --cycles 500
          coordinate file            : 00030.sdf
          omp threads                :                     1


           -------------------------------------------------
          |                 G F N 2 - x T B                 |
           -------------------------------------------------

        Reference                      10.1021/acs.jctc.8b01176
      * Hamiltonian:
        H0-scaling (s, p, d)           1.850000    2.230000    2.230000
        zeta-weighting                 0.500000
      * Dispersion:
        s8                             2.700000
        a1                             0.520000
        a2                             5.000000
        s9                             5.000000
      * Repulsion:
        kExp                           1.500000    1.000000
        rExp                           1.000000
      * Coulomb:
        alpha                          2.000000
        third order                    shell-resolved
        anisotropic                    true
        a3                             3.000000
        a5                             4.000000
        cn-shift                       1.200000
        cn-exp                         4.000000
        max-rad                        5.000000


          ...................................................
          :                      SETUP                      :
          :.................................................:
          :  # basis functions                 179          :
          :  # atomic orbitals                 179          :
          :  # shells                          101          :
          :  # electrons                       188          :
          :  max. iterations                   250          :
          :  Hamiltonian                  GFN2-xTB          :
          :  restarted?                      false          :
          :  GBSA solvation                  false          :
          :  PC potential                    false          :
          :  electronic temp.          300.0000000     K    :
          :  accuracy                    1.0000000          :
          :  -> integral cutoff          0.2500000E+02      :
          :  -> integral neglect         0.1000000E-07      :
          :  -> SCF convergence          0.1000000E-05 Eh   :
          :  -> wf. convergence          0.1000000E-03 e    :
          :  Broyden damping             0.4000000          :
          :  net charge                          0          :
          :  unpaired electrons                  0          :
          ...................................................

 iter      E             dE          RMSdq      gap      omega  full diag
   1   -103.3554595 -0.103355E+03  0.488E+00    0.95       0.0  T
   2   -103.4569889 -0.101529E+00  0.332E+00    0.85       1.0  T
   3   -103.3922234  0.647656E-01  0.215E+00    0.56       1.0  T
   4   -103.5078786 -0.115655E+00  0.101E+00    0.25       1.0  T
   5   -103.5665825 -0.587039E-01  0.284E-01    0.32       1.0  T
   6   -103.5704003 -0.381780E-02  0.141E-01    0.32       1.0  T
   7   -103.5710967 -0.696417E-03  0.754E-02    0.34       1.0  T
   8   -103.5713759 -0.279199E-03  0.280E-02    0.35       1.0  T
   9   -103.5713883 -0.123802E-04  0.166E-02    0.34       1.0  T
  10   -103.5714003 -0.120496E-04  0.525E-03    0.34       2.4  T
  11   -103.5714011 -0.750968E-06  0.249E-03    0.34       5.1  T
  12   -103.5714014 -0.284027E-06  0.888E-04    0.34      14.3  T
  13   -103.5714014 -0.784529E-08  0.497E-04    0.34      25.5  T

   *** convergence criteria satisfied after 13 iterations ***

         #    Occupation            Energy/Eh            Energy/eV
      -------------------------------------------------------------
         1        2.0000           -0.7164873             -19.4966
       ...           ...                  ...                  ...
        88        2.0000           -0.3959734             -10.7750
        89        2.0000           -0.3923064             -10.6752
        90        2.0000           -0.3890672             -10.5871
        91        2.0000           -0.3683290             -10.0227
        92        2.0000           -0.3522010              -9.5839
        93        2.0000           -0.3472258              -9.4485
        94        1.9973           -0.3433618              -9.3434 (HOMO)
        95        0.0027           -0.3308032              -9.0016 (LUMO)
        96                         -0.2899101              -7.8889
        97                         -0.2729255              -7.4267
        98                         -0.2635425              -7.1714
        99                         -0.2561763              -6.9709
       ...                                ...                  ...
       179                          0.8729889              23.7552
      -------------------------------------------------------------
                  HL-Gap            0.0125586 Eh            0.3417 eV
             Fermi-level           -0.3370744 Eh           -9.1723 eV

 SCC (total)                   0 d,  0 h,  0 min,  0.093 sec
 SCC setup                      ...        0 min,  0.001 sec (  0.584%)
 Dispersion                     ...        0 min,  0.001 sec (  1.158%)
 classical contributions        ...        0 min,  0.000 sec (  0.202%)
 integral evaluation            ...        0 min,  0.010 sec ( 10.904%)
 iterations                     ...        0 min,  0.049 sec ( 52.623%)
 molecular gradient             ...        0 min,  0.032 sec ( 34.104%)
 printout                       ...        0 min,  0.000 sec (  0.412%)

         :::::::::::::::::::::::::::::::::::::::::::::::::::::
         ::                     SUMMARY                     ::
         :::::::::::::::::::::::::::::::::::::::::::::::::::::
         :: total energy            -102.196589011740 Eh    ::
         :: gradient norm              0.358094416466 Eh/a0 ::
         :: HOMO-LUMO gap              0.341736917553 eV    ::
         ::.................................................::
         :: SCC energy              -103.571550512795 Eh    ::
         :: -> isotropic ES            0.058464374542 Eh    ::
         :: -> anisotropic ES          0.021465021670 Eh    ::
         :: -> anisotropic XC          0.091282591377 Eh    ::
         :: -> dispersion             -0.077027584096 Eh    ::
         :: repulsion energy           1.374961501056 Eh    ::
         :: add. restraining           0.000000000000 Eh    ::
         :: total charge               0.000000001119 e     ::
         :::::::::::::::::::::::::::::::::::::::::::::::::::::

      ----------------------------------------------------------- 
     |                   =====================                   |
     |                        A N C O P T                        |
     |                   =====================                   |
     |               Approximate Normal Coordinate               |
     |                Rational Function Optimizer                |
      ----------------------------------------------------------- 
      ----------------------------------------------------------- 
     |                   =====================                   |
     |                        A N C O P T                        |
     |                   =====================                   |
     |               Approximate Normal Coordinate               |
     |                Rational Function Optimizer                |
      ----------------------------------------------------------- 

          ...................................................
          :                      SETUP                      :
          :.................................................:
          :   optimization level             loose          :
          :   max. optcycles                   500          :
          :   ANC micro-cycles                  20          :
          :   degrees of freedom               180          :
          :.................................................:
          :   RF solver                   davidson          :
          :   write xtbopt.log                true          :
          :   linear?                        false          :
          :   energy convergence         0.5000000E-04 Eh   :
          :   grad. convergence          0.4000000E-02 Eh/α :
          :   maxmium RF displ.          1.0000000          :
          :   Hlow (freq-cutoff)         0.1000000E-01      :
          :   Hmax (freq-cutoff)         5.0000000          :
          :   S6 in model hess.         20.0000000          :
          ...................................................

generating ANC from exact Hessian ...
Using Lindh-Hessian (1995)
 Shifting diagonal of input Hessian by    1.0074335100837040E-002
 Lowest  eigenvalues of input Hessian
    0.010000    0.000000    0.000000    0.000000    0.000000    0.000000
    0.000000    0.010132    0.010240    0.010335    0.010460    0.010509
    0.010637    0.010755    0.011074    0.011249    0.011570    0.012009
 Highest eigenvalues
    1.892032    1.895494    1.945286    2.051748    2.119673    2.238089


........................................................................
.............................. CYCLE    1 ..............................
........................................................................

 iter      E             dE          RMSdq      gap      omega  full diag
   1   -103.5714014 -0.103571E+03  0.230E-04    0.34       0.0  T
   2   -103.5714014  0.124520E-08  0.245E-04    0.34      51.9  T
   3   -103.5714014 -0.342268E-08  0.874E-05    0.34     145.3  T
     SCC iter.                  ...        0 min,  0.012 sec
     gradient                   ...        0 min,  0.031 sec
 * total energy  :  -102.1965890 Eh     change       -0.1030337E-07 Eh
   gradient norm :     0.3580939 Eh/α   predicted     0.0000000E+00 (-100.00%)
   displ. norm   :     0.5885312 α      lambda       -0.1437009E+00
   maximum displ.:     0.1612917 α      in ANC's #88, #18, #28, ...

........................................................................
.............................. CYCLE    2 ..............................
........................................................................

 iter      E             dE          RMSdq      gap      omega  full diag
   1   -103.7305843 -0.103731E+03  0.357E-01    0.40       0.0  T
   2   -103.7312162 -0.631826E-03  0.226E-01    0.37       1.0  T
   3   -103.7307902  0.425915E-03  0.146E-01    0.36       1.0  T
   4   -103.7314869 -0.696612E-03  0.507E-02    0.36       1.0  T
   5   -103.7316183 -0.131437E-03  0.212E-02    0.36       1.0  T
   6   -103.7316466 -0.282703E-04  0.786E-03    0.36       1.6  T
   7   -103.7316486 -0.206885E-05  0.430E-03    0.36       3.0  T
   8   -103.7316491 -0.516694E-06  0.163E-03    0.36       7.8  T
   9   -103.7316492 -0.970832E-07  0.698E-04    0.36      18.2  T
  10   -103.7316493 -0.185710E-07  0.273E-04    0.36      46.5  T
     SCC iter.                  ...        0 min,  0.035 sec
     gradient                   ...        0 min,  0.032 sec
 * total energy  :  -102.3045314 Eh     change       -0.1079424E+00 Eh
   gradient norm :     0.1557168 Eh/α   predicted    -0.9684707E-01 ( -10.28%)
   displ. norm   :     0.7166659 α      lambda       -0.7926515E-01
   maximum displ.:     0.1994092 α      in ANC's #18, #28, #26, ...

........................................................................
.............................. CYCLE    3 ..............................
........................................................................

 iter      E             dE          RMSdq      gap      omega  full diag
   1   -103.8630368 -0.103863E+03  0.310E-01    0.47       0.0  T
   2   -103.8635560 -0.519176E-03  0.200E-01    0.42       1.0  T
   3   -103.8633242  0.231830E-03  0.130E-01    0.42       1.0  T
   4   -103.8638262 -0.502007E-03  0.500E-02    0.41       1.0  T
   5   -103.8639613 -0.135099E-03  0.185E-02    0.40       1.0  T
   6   -103.8639804 -0.191503E-04  0.664E-03    0.40       1.9  T
   7   -103.8639816 -0.118913E-05  0.355E-03    0.40       3.6  T
   8   -103.8639819 -0.313102E-06  0.138E-03    0.40       9.2  T
   9   -103.8639820 -0.759993E-07  0.531E-04    0.40      23.9  T
  10   -103.8639820 -0.857831E-08  0.226E-04    0.40      56.1  T
     SCC iter.                  ...        0 min,  0.041 sec
     gradient                   ...        0 min,  0.032 sec
 * total energy  :  -102.3653629 Eh     change       -0.6083147E-01 Eh
   gradient norm :     0.0772738 Eh/α   predicted    -0.5998838E-01 (  -1.39%)
   displ. norm   :     0.8235737 α      lambda       -0.5036869E-01
   maximum displ.:     0.2866647 α      in ANC's #18, #26, #28, ...

........................................................................
.............................. CYCLE    4 ..............................
........................................................................

 iter      E             dE          RMSdq      gap      omega  full diag
   1   -103.9406850 -0.103941E+03  0.274E-01    0.49       0.0  T
   2   -103.9408373 -0.152292E-03  0.168E-01    0.49       1.0  T
   3   -103.9401989  0.638378E-03  0.116E-01    0.50       1.0  T
   4   -103.9409886 -0.789727E-03  0.288E-02    0.49       1.0  T
   5   -103.9410314 -0.427986E-04  0.109E-02    0.49       1.2  T
   6   -103.9410358 -0.439147E-05  0.481E-03    0.49       2.6  T
   7   -103.9410363 -0.452115E-06  0.228E-03    0.49       5.6  T
   8   -103.9410364 -0.135217E-06  0.926E-04    0.49      13.7  T
   9   -103.9410364 -0.361703E-07  0.355E-04    0.49      35.8  T
     SCC iter.                  ...        0 min,  0.043 sec
     gradient                   ...        0 min,  0.032 sec
 * total energy  :  -102.4100971 Eh     change       -0.4473417E-01 Eh
   gradient norm :     0.0719734 Eh/α   predicted    -0.4226623E-01 (  -5.52%)
   displ. norm   :     0.8788046 α      lambda       -0.4486733E-01
   maximum displ.:     0.3159813 α      in ANC's #26, #18, #19, ...

........................................................................
.............................. CYCLE    5 ..............................
........................................................................

 iter      E             dE          RMSdq      gap      omega  full diag
   1   -104.0108810 -0.104011E+03  0.278E-01    0.52       0.0  T
   2   -104.0111081 -0.227048E-03  0.161E-01    0.53       1.0  T
   3   -104.0106878  0.420302E-03  0.945E-02    0.52       1.0  T
   4   -104.0111732 -0.485416E-03  0.313E-02    0.52       1.0  T
   5   -104.0112227 -0.494687E-04  0.972E-03    0.52       1.3  T
   6   -104.0112274 -0.468137E-05  0.410E-03    0.52       3.1  T
   7   -104.0112277 -0.301211E-06  0.200E-03    0.52       6.3  T
   8   -104.0112278 -0.976583E-07  0.705E-04    0.52      18.0  T
   9   -104.0112278 -0.169046E-07  0.334E-04    0.52      38.0  T
     SCC iter.                  ...        0 min,  0.034 sec
     gradient                   ...        0 min,  0.032 sec
 * total energy  :  -102.4487850 Eh     change       -0.3868797E-01 Eh
   gradient norm :     0.0675609 Eh/α   predicted    -0.3975915E-01 (   2.77%)
   displ. norm   :     0.8646001 α      lambda       -0.3627536E-01
   maximum displ.:     0.3382687 α      in ANC's #18, #19, #28, ...

........................................................................
.............................. CYCLE    6 ..............................
........................................................................

 iter      E             dE          RMSdq      gap      omega  full diag
   1   -104.0463333 -0.104046E+03  0.265E-01    0.54       0.0  T
   2   -104.0464532 -0.119905E-03  0.153E-01    0.54       1.0  T
   3   -104.0462126  0.240654E-03  0.691E-02    0.54       1.0  T
   4   -104.0465019 -0.289371E-03  0.164E-02    0.54       1.0  T
   5   -104.0465131 -0.111710E-04  0.674E-03    0.54       1.9  T
   6   -104.0465146 -0.147613E-05  0.355E-03    0.54       3.6  T
   7   -104.0465149 -0.331766E-06  0.150E-03    0.54       8.5  T
   8   -104.0465150 -0.690132E-07  0.506E-04    0.54      25.1  T
   9   -104.0465150 -0.858978E-08  0.212E-04    0.54      59.9  T
     SCC iter.                  ...        0 min,  0.034 sec
     gradient                   ...        0 min,  0.032 sec
 * total energy  :  -102.4788005 Eh     change       -0.3001541E-01 Eh
   gradient norm :     0.0712330 Eh/α   predicted    -0.3169621E-01 (   5.60%)
   displ. norm   :     0.8731147 α      lambda       -0.3239752E-01
   maximum displ.:     0.2832277 α      in ANC's #18, #13, #23, ...

........................................................................
.............................. CYCLE    7 ..............................
........................................................................

 iter      E             dE          RMSdq      gap      omega  full diag
   1   -104.1223863 -0.104122E+03  0.332E-01    0.56       0.0  T
   2   -104.1225446 -0.158345E-03  0.191E-01    0.58       1.0  T
   3   -104.1222393  0.305374E-03  0.703E-02    0.56       1.0  T
   4   -104.1226251 -0.385791E-03  0.126E-02    0.57       1.0  T
   5   -104.1226307 -0.565514E-05  0.580E-03    0.57       2.2  T
   6   -104.1226311 -0.394985E-06  0.270E-03    0.57       4.7  T
   7   -104.1226313 -0.224934E-06  0.121E-03    0.57      10.5  T
   8   -104.1226314 -0.596843E-07  0.413E-04    0.57      30.8  T
   9   -104.1226314 -0.572263E-08  0.188E-04    0.57      67.6  T
     SCC iter.                  ...        0 min,  0.034 sec
     gradient                   ...        0 min,  0.032 sec
 * total energy  :  -102.5029412 Eh     change       -0.2414071E-01 Eh
   gradient norm :     0.0670516 Eh/α   predicted    -0.2854764E-01 (  18.26%)
   displ. norm   :     0.8192318 α      lambda       -0.2293554E-01
   maximum displ.:     0.2935747 α      in ANC's #26, #18, #19, ...

........................................................................
.............................. CYCLE    8 ..............................
........................................................................

 iter      E             dE          RMSdq      gap      omega  full diag
   1   -104.1569069 -0.104157E+03  0.189E-01    0.58       0.0  T
   2   -104.1569919 -0.849200E-04  0.111E-01    0.58       1.0  T
   3   -104.1568433  0.148563E-03  0.529E-02    0.58       1.0  T
   4   -104.1570303 -0.187033E-03  0.110E-02    0.58       1.2  T
   5   -104.1570349 -0.461008E-05  0.427E-03    0.58       3.0  T
   6   -104.1570357 -0.756115E-06  0.190E-03    0.58       6.7  T
   7   -104.1570358 -0.705763E-07  0.898E-04    0.58      14.2  T
   8   -104.1570358 -0.261836E-07  0.350E-04    0.58      36.3  T
     SCC iter.                  ...        0 min,  0.030 sec
     gradient                   ...        0 min,  0.032 sec
 * total energy  :  -102.5212387 Eh     change       -0.1829759E-01 Eh
   gradient norm :     0.0397076 Eh/α   predicted    -0.1916427E-01 (   4.74%)
   displ. norm   :     0.8448543 α      lambda       -0.1953728E-01
   maximum displ.:     0.3027846 α      in ANC's #18, #19, #23, ...

........................................................................
.............................. CYCLE    9 ..............................
........................................................................

 iter      E             dE          RMSdq      gap      omega  full diag
   1   -104.1905508 -0.104191E+03  0.213E-01    0.60       0.0  T
   2   -104.1906312 -0.803365E-04  0.122E-01    0.60       1.0  T
   3   -104.1905147  0.116469E-03  0.497E-02    0.60       1.0  T
   4   -104.1906553 -0.140625E-03  0.115E-02    0.60       1.1  T
   5   -104.1906595 -0.413440E-05  0.504E-03    0.60       2.5  T
   6   -104.1906604 -0.962225E-06  0.220E-03    0.60       5.8  T
   7   -104.1906605 -0.819750E-07  0.109E-03    0.60      11.6  T
   8   -104.1906605 -0.330796E-07  0.360E-04    0.60      35.3  T
   9   -104.1906605 -0.607351E-08  0.130E-04    0.60      97.8  T
     SCC iter.                  ...        0 min,  0.033 sec
     gradient                   ...        0 min,  0.032 sec
 * total energy  :  -102.5342221 Eh     change       -0.1298335E-01 Eh
   gradient norm :     0.0573672 Eh/α   predicted    -0.1674130E-01 (  28.94%)
   displ. norm   :     0.7344088 α      lambda       -0.1334601E-01
   maximum displ.:     0.2307610 α      in ANC's #18, #23, #19, ...

........................................................................
.............................. CYCLE   10 ..............................
........................................................................

 iter      E             dE          RMSdq      gap      omega  full diag
   1   -104.2044957 -0.104204E+03  0.206E-01    0.62       0.0  T
   2   -104.2045521 -0.563591E-04  0.118E-01    0.63       1.0  T
   3   -104.2044926  0.595522E-04  0.383E-02    0.62       1.0  T
   4   -104.2045666 -0.740905E-04  0.906E-03    0.63       1.4  T
   5   -104.2045693 -0.268090E-05  0.392E-03    0.63       3.2  T
   6   -104.2045696 -0.311789E-06  0.188E-03    0.63       6.7  T
   7   -104.2045697 -0.636384E-07  0.771E-04    0.63      16.5  T
   8   -104.2045697 -0.223185E-07  0.276E-04    0.63      46.1  T
     SCC iter.                  ...        0 min,  0.030 sec
     gradient                   ...        0 min,  0.032 sec
 * total energy  :  -102.5440537 Eh     change       -0.9831597E-02 Eh
   gradient norm :     0.0264433 Eh/α   predicted    -0.1027214E-01 (   4.48%)
   displ. norm   :     0.7497799 α      lambda       -0.9396038E-02
   maximum displ.:     0.2446958 α      in ANC's #23, #6, #13, ...

........................................................................
.............................. CYCLE   11 ..............................
........................................................................

 iter      E             dE          RMSdq      gap      omega  full diag
   1   -104.2362415 -0.104236E+03  0.192E-01    0.65       0.0  T
   2   -104.2362746 -0.331605E-04  0.113E-01    0.66       1.0  T
   3   -104.2361264  0.148219E-03  0.531E-02    0.65       1.0  T
   4   -104.2363008 -0.174355E-03  0.841E-03    0.66       1.5  T
   5   -104.2363030 -0.223429E-05  0.412E-03    0.66       3.1  T
   6   -104.2363034 -0.379055E-06  0.164E-03    0.66       7.7  T
   7   -104.2363035 -0.760586E-07  0.585E-04    0.66      21.7  T
   8   -104.2363035 -0.118261E-07  0.246E-04    0.66      51.7  T
     SCC iter.                  ...        0 min,  0.031 sec
     gradient                   ...        0 min,  0.032 sec
 * total energy  :  -102.5504902 Eh     change       -0.6436554E-02 Eh
   gradient norm :     0.0345052 Eh/α   predicted    -0.7339109E-02 (  14.02%)
   displ. norm   :     0.7113638 α      lambda       -0.6857987E-02
   maximum displ.:     0.2593238 α      in ANC's #6, #13, #12, ...

........................................................................
.............................. CYCLE   12 ..............................
........................................................................

 iter      E             dE          RMSdq      gap      omega  full diag
   1   -104.2475373 -0.104248E+03  0.223E-01    0.67       0.0  T
   2   -104.2475786 -0.413358E-04  0.127E-01    0.68       1.0  T
   3   -104.2474616  0.116977E-03  0.495E-02    0.67       1.0  T
   4   -104.2476029 -0.141288E-03  0.860E-03    0.67       1.5  T
   5   -104.2476044 -0.147701E-05  0.493E-03    0.67       2.6  T
   6   -104.2476051 -0.729375E-06  0.182E-03    0.67       7.0  T
   7   -104.2476052 -0.980657E-07  0.701E-04    0.67      18.1  T
   8   -104.2476053 -0.147280E-07  0.273E-04    0.67      46.5  T
     SCC iter.                  ...        0 min,  0.030 sec
     gradient                   ...        0 min,  0.032 sec
 * total energy  :  -102.5554550 Eh     change       -0.4964793E-02 Eh
   gradient norm :     0.0258372 Eh/α   predicted    -0.5164202E-02 (   4.02%)
   displ. norm   :     0.7018590 α      lambda       -0.5292304E-02
   maximum displ.:     0.2901268 α      in ANC's #6, #8, #9, ...

........................................................................
.............................. CYCLE   13 ..............................
........................................................................

 iter      E             dE          RMSdq      gap      omega  full diag
   1   -104.2577497 -0.104258E+03  0.190E-01    0.69       0.0  T
   2   -104.2577799 -0.302570E-04  0.109E-01    0.69       1.0  T
   3   -104.2577389  0.410775E-04  0.304E-02    0.68       1.0  T
   4   -104.2577908 -0.519294E-04  0.825E-03    0.69       1.5  T
   5   -104.2577921 -0.127987E-05  0.423E-03    0.69       3.0  T
   6   -104.2577927 -0.615639E-06  0.151E-03    0.69       8.4  T
   7   -104.2577928 -0.552630E-07  0.719E-04    0.69      17.7  T
   8   -104.2577928 -0.150323E-07  0.254E-04    0.69      50.0  T
     SCC iter.                  ...        0 min,  0.052 sec
     gradient                   ...        0 min,  0.062 sec
 * total energy  :  -102.5589929 Eh     change       -0.3537811E-02 Eh
   gradient norm :     0.0270958 Eh/α   predicted    -0.3949669E-02 (  11.64%)
   displ. norm   :     0.6925965 α      lambda       -0.4750710E-02
   maximum displ.:     0.2867798 α      in ANC's #6, #8, #7, ...

........................................................................
.............................. CYCLE   14 ..............................
........................................................................

 iter      E             dE          RMSdq      gap      omega  full diag
   1   -104.2596751 -0.104260E+03  0.192E-01    0.70       0.0  T
   2   -104.2597057 -0.305437E-04  0.111E-01    0.70       1.0  T
   3   -104.2596450  0.607077E-04  0.329E-02    0.70       1.0  T
   4   -104.2597170 -0.720836E-04  0.871E-03    0.70       1.5  T
   5   -104.2597189 -0.184004E-05  0.362E-03    0.70       3.5  T
   6   -104.2597194 -0.556443E-06  0.156E-03    0.70       8.1  T
   7   -104.2597195 -0.477379E-07  0.653E-04    0.70      19.4  T
   8   -104.2597195 -0.136730E-07  0.229E-04    0.70      55.5  T
     SCC iter.                  ...        0 min,  0.046 sec
     gradient                   ...        0 min,  0.033 sec
 * total energy  :  -102.5622392 Eh     change       -0.3246364E-02 Eh
   gradient norm :     0.0285606 Eh/α   predicted    -0.3514793E-02 (   8.27%)
   displ. norm   :     0.6657447 α      lambda       -0.4361157E-02
   maximum displ.:     0.2962070 α      in ANC's #6, #7, #9, ...

........................................................................
.............................. CYCLE   15 ..............................
........................................................................

 iter      E             dE          RMSdq      gap      omega  full diag
   1   -104.2655423 -0.104266E+03  0.203E-01    0.70       0.0  T
   2   -104.2655915 -0.491527E-04  0.115E-01    0.71       1.0  T
   3   -104.2654732  0.118232E-03  0.471E-02    0.70       1.0  T
   4   -104.2656147 -0.141497E-03  0.102E-02    0.70       1.2  T
   5   -104.2656170 -0.230911E-05  0.463E-03    0.70       2.7  T
   6   -104.2656181 -0.101780E-05  0.155E-03    0.70       8.2  T
   7   -104.2656181 -0.224767E-07  0.895E-04    0.70      14.2  T
   8   -104.2656181 -0.248538E-07  0.292E-04    0.70      43.6  T
     SCC iter.                  ...        0 min,  0.031 sec
     gradient                   ...        0 min,  0.033 sec
 * total energy  :  -102.5650121 Eh     change       -0.2772882E-02 Eh
   gradient norm :     0.0256445 Eh/α   predicted    -0.3147050E-02 (  13.49%)
   displ. norm   :     0.6483795 α      lambda       -0.3510256E-02
   maximum displ.:     0.3073241 α      in ANC's #6, #7, #8, ...

........................................................................
.............................. CYCLE   16 ..............................
........................................................................

 iter      E             dE          RMSdq      gap      omega  full diag
   1   -104.2746523 -0.104275E+03  0.147E-01    0.71       0.0  T
   2   -104.2746902 -0.378862E-04  0.811E-02    0.71       1.0  T
   3   -104.2746717  0.184675E-04  0.240E-02    0.70       1.0  T
   4   -104.2746967 -0.249529E-04  0.931E-03    0.71       1.4  T
   5   -104.2746995 -0.280374E-05  0.330E-03    0.71       3.8  T
   6   -104.2746999 -0.422291E-06  0.106E-03    0.71      12.0  T
   7   -104.2746999 -0.130863E-07  0.654E-04    0.71      19.4  T
   8   -104.2746999 -0.135871E-07  0.176E-04    0.71      72.2  T
     SCC iter.                  ...        0 min,  0.031 sec
     gradient                   ...        0 min,  0.033 sec
 * total energy  :  -102.5675603 Eh     change       -0.2548181E-02 Eh
   gradient norm :     0.0169444 Eh/α   predicted    -0.2492980E-02 (  -2.17%)
   displ. norm   :     0.7143235 α      lambda       -0.3116839E-02
   maximum displ.:     0.3152154 α      in ANC's #6, #7, #8, ...

........................................................................
.............................. CYCLE   17 ..............................
........................................................................

 iter      E             dE          RMSdq      gap      omega  full diag
   1   -104.2645890 -0.104265E+03  0.194E-01    0.70       0.0  T
   2   -104.2646350 -0.459891E-04  0.109E-01    0.71       1.0  T
   3   -104.2645301  0.104907E-03  0.472E-02    0.70       1.0  T
   4   -104.2646528 -0.122692E-03  0.118E-02    0.71       1.1  T
   5   -104.2646562 -0.343003E-05  0.539E-03    0.71       2.4  T
   6   -104.2646576 -0.142493E-05  0.162E-03    0.71       7.8  T
   7   -104.2646577 -0.492003E-07  0.776E-04    0.71      16.4  T
   8   -104.2646577 -0.117547E-07  0.274E-04    0.71      46.4  T
     SCC iter.                  ...        0 min,  0.031 sec
     gradient                   ...        0 min,  0.033 sec
 * total energy  :  -102.5694882 Eh     change       -0.1927957E-02 Eh
   gradient norm :     0.0227936 Eh/α   predicted    -0.2353619E-02 (  22.08%)
   displ. norm   :     0.6098096 α      lambda       -0.2448258E-02
   maximum displ.:     0.2877713 α      in ANC's #6, #7, #9, ...

........................................................................
.............................. CYCLE   18 ..............................
........................................................................

 iter      E             dE          RMSdq      gap      omega  full diag
   1   -104.2786445 -0.104279E+03  0.125E-01    0.72       0.0  T
   2   -104.2786756 -0.311408E-04  0.700E-02    0.72       1.0  T
   3   -104.2786483  0.273743E-04  0.288E-02    0.71       1.0  T
   4   -104.2786821 -0.338393E-04  0.857E-03    0.72       1.5  T
   5   -104.2786842 -0.205552E-05  0.358E-03    0.72       3.5  T
   6   -104.2786848 -0.627204E-06  0.112E-03    0.72      11.3  T
   7   -104.2786848 -0.415451E-07  0.522E-04    0.72      24.3  T
   8   -104.2786848 -0.321427E-08  0.229E-04    0.72      55.6  T
     SCC iter.                  ...        0 min,  0.031 sec
     gradient                   ...        0 min,  0.033 sec
 * total energy  :  -102.5706895 Eh     change       -0.1201275E-02 Eh
   gradient norm :     0.0471530 Eh/α   predicted    -0.1679349E-02 (  39.80%)
   displ. norm   :     0.5421160 α      lambda       -0.2585711E-02
   maximum displ.:     0.2298097 α      in ANC's #6, #7, #9, ...

........................................................................
.............................. CYCLE   19 ..............................
........................................................................

 iter      E             dE          RMSdq      gap      omega  full diag
   1   -104.2692329 -0.104269E+03  0.193E-01    0.71       0.0  T
   2   -104.2692727 -0.397720E-04  0.109E-01    0.71       1.0  T
   3   -104.2690661  0.206576E-03  0.670E-02    0.71       1.0  T
   4   -104.2693102 -0.244118E-03  0.859E-03    0.71       1.5  T
   5   -104.2693119 -0.167841E-05  0.480E-03    0.71       2.6  T
   6   -104.2693129 -0.100968E-05  0.174E-03    0.71       7.3  T
   7   -104.2693130 -0.434410E-07  0.847E-04    0.71      15.0  T
   8   -104.2693130 -0.218148E-07  0.310E-04    0.71      40.9  T
     SCC iter.                  ...        0 min,  0.031 sec
     gradient                   ...        0 min,  0.033 sec
 * total energy  :  -102.5711066 Eh     change       -0.4170489E-03 Eh
   gradient norm :     0.0415199 Eh/α   predicted    -0.1672817E-02 ( 301.11%)
   displ. norm   :     0.3106654 α      lambda       -0.2484168E-02
   maximum displ.:     0.1458274 α      in ANC's #6, #7, #9, ...

........................................................................
.............................. CYCLE   20 ..............................
........................................................................

 iter      E             dE          RMSdq      gap      omega  full diag
   1   -104.2763370 -0.104276E+03  0.112E-01    0.72       0.0  T
   2   -104.2763465 -0.950452E-05  0.660E-02    0.72       1.0  T
   3   -104.2762960  0.504792E-04  0.332E-02    0.72       1.0  T
   4   -104.2763538 -0.577603E-04  0.522E-03    0.72       2.4  T
   5   -104.2763546 -0.850819E-06  0.266E-03    0.72       4.8  T
   6   -104.2763548 -0.225267E-06  0.946E-04    0.72      13.4  T
   7   -104.2763548 -0.145101E-07  0.396E-04    0.72      32.1  T
     SCC iter.                  ...        0 min,  0.027 sec
     gradient                   ...        0 min,  0.033 sec
 * total energy  :  -102.5723951 Eh     change       -0.1288586E-02 Eh
   gradient norm :     0.0130883 Eh/α   predicted    -0.1361965E-02 (   5.69%)
   displ. norm   :     0.4195471 α      lambda       -0.1088340E-02
   maximum displ.:     0.2013011 α      in ANC's #6, #7, #9, ...
 * RMSD in coord.:     1.3829936 α      energy gain  -0.3758061E+00 Eh

generating ANC from exact Hessian ...
Using Lindh-Hessian (1995)
 Shifting diagonal of input Hessian by    1.0142984528529677E-002
 Lowest  eigenvalues of input Hessian
    0.010000    0.000000    0.000000    0.000000    0.000000    0.000000
    0.000000    0.010264    0.010449    0.010750    0.010772    0.011013
    0.011469    0.011717    0.011885    0.012345    0.012928    0.013340
 Highest eigenvalues
    2.120343    2.168921    2.183623    2.185849    2.253636    2.656761


........................................................................
.............................. CYCLE   21 ..............................
........................................................................

 iter      E             dE          RMSdq      gap      omega  full diag
   1   -104.2794367 -0.104279E+03  0.878E-02    0.72       0.0  T
   2   -104.2794425 -0.577824E-05  0.518E-02    0.73       1.0  T
   3   -104.2794255  0.170373E-04  0.170E-02    0.72       1.0  T
   4   -104.2794446 -0.191495E-04  0.425E-03    0.72       3.0  T
   5   -104.2794453 -0.632267E-06  0.158E-03    0.73       8.1  T
   6   -104.2794454 -0.944305E-07  0.668E-04    0.73      19.0  T
   7   -104.2794454 -0.984846E-08  0.305E-04    0.72      41.6  T
     SCC iter.                  ...        0 min,  0.028 sec
     gradient                   ...        0 min,  0.033 sec
 * total energy  :  -102.5729055 Eh     change       -0.5103892E-03 Eh
   gradient norm :     0.0203736 Eh/α   predicted     0.0000000E+00 (-100.00%)
   displ. norm   :     0.1650217 α      lambda       -0.8486840E-03
   maximum displ.:     0.0685839 α      in ANC's #11, #9, #6, ...

........................................................................
.............................. CYCLE   22 ..............................
........................................................................

 iter      E             dE          RMSdq      gap      omega  full diag
   1   -104.2786754 -0.104279E+03  0.125E-01    0.72       0.0  T
   2   -104.2786854 -0.100154E-04  0.702E-02    0.72       1.0  T
   3   -104.2786726  0.127437E-04  0.161E-02    0.73       1.0  T
   4   -104.2786901 -0.174880E-04  0.332E-03    0.72       3.8  T
   5   -104.2786903 -0.177534E-06  0.175E-03    0.72       7.3  T
   6   -104.2786903 -0.519116E-07  0.697E-04    0.72      18.2  T
   7   -104.2786904 -0.236091E-07  0.216E-04    0.72      58.7  T
     SCC iter.                  ...        0 min,  0.027 sec
     gradient                   ...        0 min,  0.033 sec
 * total energy  :  -102.5734207 Eh     change       -0.5151479E-03 Eh
   gradient norm :     0.0096160 Eh/α   predicted    -0.4359842E-03 ( -15.37%)
   displ. norm   :     0.2597949 α      lambda       -0.7228420E-03
   maximum displ.:     0.1163659 α      in ANC's #9, #6, #2, ...

........................................................................
.............................. CYCLE   23 ..............................
........................................................................

 iter      E             dE          RMSdq      gap      omega  full diag
   1   -104.2810123 -0.104281E+03  0.110E-01    0.72       0.0  T
   2   -104.2810199 -0.764318E-05  0.629E-02    0.72       1.0  T
   3   -104.2809863  0.336609E-04  0.243E-02    0.72       1.0  T
   4   -104.2810258 -0.394881E-04  0.356E-03    0.72       3.6  T
   5   -104.2810260 -0.220958E-06  0.193E-03    0.72       6.6  T
   6   -104.2810260 -0.737309E-07  0.628E-04    0.72      20.2  T
   7   -104.2810261 -0.176959E-07  0.225E-04    0.72      56.4  T
     SCC iter.                  ...        0 min,  0.035 sec
     gradient                   ...        0 min,  0.035 sec
 * total energy  :  -102.5737587 Eh     change       -0.3380507E-03 Eh
   gradient norm :     0.0121814 Eh/α   predicted    -0.3858151E-03 (  14.13%)
   displ. norm   :     0.2586437 α      lambda       -0.5013366E-03
   maximum displ.:     0.1156994 α      in ANC's #6, #9, #2, ...

........................................................................
.............................. CYCLE   24 ..............................
........................................................................

 iter      E             dE          RMSdq      gap      omega  full diag
   1   -104.2818146 -0.104282E+03  0.112E-01    0.72       0.0  T
   2   -104.2818212 -0.655879E-05  0.631E-02    0.72       1.0  T
   3   -104.2818005  0.206212E-04  0.210E-02    0.73       1.0  T
   4   -104.2818257 -0.251554E-04  0.282E-03    0.72       4.5  T
   5   -104.2818257 -0.460316E-07  0.184E-03    0.72       6.9  T
   6   -104.2818258 -0.112712E-06  0.579E-04    0.72      21.9  T
   7   -104.2818259 -0.138486E-07  0.198E-04    0.72      64.2  T
     SCC iter.                  ...        0 min,  0.026 sec
     gradient                   ...        0 min,  0.033 sec
 * total energy  :  -102.5741584 Eh     change       -0.3996545E-03 Eh
   gradient norm :     0.0093477 Eh/α   predicted    -0.2674386E-03 ( -33.08%)
   displ. norm   :     0.4786391 α      lambda       -0.7190691E-03
   maximum displ.:     0.2107631 α      in ANC's #6, #9, #2, ...

........................................................................
.............................. CYCLE   25 ..............................
........................................................................

 iter      E             dE          RMSdq      gap      omega  full diag
   1   -104.2791781 -0.104279E+03  0.149E-01    0.72       0.0  T
   2   -104.2791888 -0.107109E-04  0.853E-02    0.72       1.0  T
   3   -104.2791599  0.288557E-04  0.244E-02    0.73       1.0  T
   4   -104.2791953 -0.353891E-04  0.392E-03    0.72       3.2  T
   5   -104.2791954 -0.958074E-07  0.242E-03    0.72       5.3  T
   6   -104.2791955 -0.156965E-06  0.825E-04    0.72      15.4  T
   7   -104.2791956 -0.251596E-07  0.322E-04    0.72      39.4  T
     SCC iter.                  ...        0 min,  0.026 sec
     gradient                   ...        0 min,  0.039 sec
 * total energy  :  -102.5747226 Eh     change       -0.5641915E-03 Eh
   gradient norm :     0.0080498 Eh/α   predicted    -0.4419091E-03 ( -21.67%)
   displ. norm   :     0.5399457 α      lambda       -0.6018149E-03
   maximum displ.:     0.2389895 α      in ANC's #6, #2, #8, ...

........................................................................
.............................. CYCLE   26 ..............................
........................................................................

 iter      E             dE          RMSdq      gap      omega  full diag
   1   -104.2772818 -0.104277E+03  0.143E-01    0.72       0.0  T
   2   -104.2772912 -0.940845E-05  0.822E-02    0.72       1.0  T
   3   -104.2772696  0.216120E-04  0.212E-02    0.72       1.0  T
   4   -104.2772963 -0.267338E-04  0.369E-03    0.72       3.4  T
   5   -104.2772965 -0.140637E-06  0.218E-03    0.72       5.8  T
   6   -104.2772966 -0.107627E-06  0.762E-04    0.72      16.7  T
   7   -104.2772966 -0.179850E-07  0.306E-04    0.72      41.4  T
     SCC iter.                  ...        0 min,  0.026 sec
     gradient                   ...        0 min,  0.033 sec
 * total energy  :  -102.5751866 Eh     change       -0.4640496E-03 Eh
   gradient norm :     0.0082569 Eh/α   predicted    -0.3886353E-03 ( -16.25%)
   displ. norm   :     0.4831749 α      lambda       -0.4755288E-03
   maximum displ.:     0.2286152 α      in ANC's #2, #6, #8, ...

........................................................................
.............................. CYCLE   27 ..............................
........................................................................

 iter      E             dE          RMSdq      gap      omega  full diag
   1   -104.2788054 -0.104279E+03  0.114E-01    0.72       0.0  T
   2   -104.2788119 -0.648623E-05  0.659E-02    0.72       1.0  T
   3   -104.2788006  0.112866E-04  0.155E-02    0.72       1.0  T
   4   -104.2788149 -0.143093E-04  0.298E-03    0.72       4.3  T
   5   -104.2788150 -0.133457E-06  0.171E-03    0.72       7.4  T
   6   -104.2788151 -0.616922E-07  0.597E-04    0.72      21.3  T
   7   -104.2788151 -0.882105E-08  0.237E-04    0.72      53.5  T
     SCC iter.                  ...        0 min,  0.026 sec
     gradient                   ...        0 min,  0.033 sec
 * total energy  :  -102.5755641 Eh     change       -0.3774957E-03 Eh
   gradient norm :     0.0075364 Eh/α   predicted    -0.2932785E-03 ( -22.31%)
   displ. norm   :     0.4699383 α      lambda       -0.4343411E-03
   maximum displ.:     0.2436877 α      in ANC's #2, #6, #8, ...

........................................................................
.............................. CYCLE   28 ..............................
........................................................................

 iter      E             dE          RMSdq      gap      omega  full diag
   1   -104.2825008 -0.104283E+03  0.103E-01    0.72       0.0  T
   2   -104.2825063 -0.548649E-05  0.594E-02    0.72       1.0  T
   3   -104.2824984  0.788905E-05  0.127E-02    0.72       1.0  T
   4   -104.2825086 -0.101609E-04  0.276E-03    0.72       4.6  T
   5   -104.2825087 -0.148093E-06  0.152E-03    0.72       8.3  T
   6   -104.2825088 -0.585186E-07  0.518E-04    0.72      24.5  T
   7   -104.2825088 -0.673174E-08  0.182E-04    0.72      69.7  T
     SCC iter.                  ...        0 min,  0.025 sec
     gradient                   ...        0 min,  0.033 sec
 * total energy  :  -102.5759045 Eh     change       -0.3404107E-03 Eh
   gradient norm :     0.0053398 Eh/α   predicted    -0.2651423E-03 ( -22.11%)
   displ. norm   :     0.5143713 α      lambda       -0.3723292E-03
   maximum displ.:     0.2769127 α      in ANC's #2, #8, #6, ...

........................................................................
.............................. CYCLE   29 ..............................
........................................................................

 iter      E             dE          RMSdq      gap      omega  full diag
   1   -104.2841701 -0.104284E+03  0.110E-01    0.72       0.0  T
   2   -104.2841752 -0.514564E-05  0.642E-02    0.72       1.0  T
   3   -104.2841672  0.796969E-05  0.120E-02    0.73       1.1  T
   4   -104.2841773 -0.100369E-04  0.277E-03    0.73       4.6  T
   5   -104.2841775 -0.189801E-06  0.149E-03    0.73       8.5  T
   6   -104.2841775 -0.583020E-07  0.540E-04    0.73      23.5  T
   7   -104.2841775 -0.883374E-08  0.176E-04    0.73      72.3  T
     SCC iter.                  ...        0 min,  0.025 sec
     gradient                   ...        0 min,  0.033 sec
 * total energy  :  -102.5761974 Eh     change       -0.2928619E-03 Eh
   gradient norm :     0.0052803 Eh/α   predicted    -0.2354208E-03 ( -19.61%)
   displ. norm   :     0.5124850 α      lambda       -0.3944670E-03
   maximum displ.:     0.3020845 α      in ANC's #2, #8, #1, ...

........................................................................
.............................. CYCLE   30 ..............................
........................................................................

 iter      E             dE          RMSdq      gap      omega  full diag
   1   -104.2887615 -0.104289E+03  0.109E-01    0.73       0.0  T
   2   -104.2887659 -0.446651E-05  0.634E-02    0.73       1.0  T
   3   -104.2887601  0.579037E-05  0.105E-02    0.73       1.2  T
   4   -104.2887677 -0.759444E-05  0.257E-03    0.73       4.9  T
   5   -104.2887679 -0.112480E-06  0.139E-03    0.73       9.1  T
   6   -104.2887679 -0.473497E-07  0.559E-04    0.73      22.7  T
   7   -104.2887679 -0.127673E-07  0.172E-04    0.73      73.6  T
     SCC iter.                  ...        0 min,  0.026 sec
     gradient                   ...        0 min,  0.033 sec
 * total energy  :  -102.5765110 Eh     change       -0.3135950E-03 Eh
   gradient norm :     0.0073262 Eh/α   predicted    -0.2490359E-03 ( -20.59%)
   displ. norm   :     0.6007805 α      lambda       -0.4130683E-03
   maximum displ.:     0.3552602 α      in ANC's #2, #8, #1, ...

........................................................................
.............................. CYCLE   31 ..............................
........................................................................

 iter      E             dE          RMSdq      gap      omega  full diag
   1   -104.2860075 -0.104286E+03  0.128E-01    0.72       0.0  T
   2   -104.2860119 -0.438272E-05  0.747E-02    0.72       1.0  T
   3   -104.2860045  0.743256E-05  0.116E-02    0.73       1.1  T
   4   -104.2860138 -0.932335E-05  0.254E-03    0.72       5.0  T
   5   -104.2860139 -0.127716E-06  0.141E-03    0.72       9.0  T
   6   -104.2860139 -0.399834E-07  0.551E-04    0.72      23.1  T
   7   -104.2860140 -0.120402E-07  0.179E-04    0.72      70.9  T
     SCC iter.                  ...        0 min,  0.037 sec
     gradient                   ...        0 min,  0.033 sec
 * total energy  :  -102.5768626 Eh     change       -0.3515752E-03 Eh
   gradient norm :     0.0061095 Eh/α   predicted    -0.2810814E-03 ( -20.05%)
   displ. norm   :     0.6026938 α      lambda       -0.5867157E-03
   maximum displ.:     0.3882774 α      in ANC's #2, #1, #8, ...

........................................................................
.............................. CYCLE   32 ..............................
........................................................................

 iter      E             dE          RMSdq      gap      omega  full diag
   1   -104.2899436 -0.104290E+03  0.147E-01    0.72       0.0  T
   2   -104.2899530 -0.943705E-05  0.848E-02    0.72       1.0  T
   3   -104.2899413  0.116998E-04  0.165E-02    0.72       1.0  T
   4   -104.2899570 -0.156918E-04  0.396E-03    0.72       3.2  T
   5   -104.2899572 -0.189246E-06  0.199E-03    0.72       6.4  T
   6   -104.2899573 -0.101679E-06  0.677E-04    0.72      18.7  T
   7   -104.2899573 -0.100062E-07  0.288E-04    0.72      44.1  T
     SCC iter.                  ...        0 min,  0.027 sec
     gradient                   ...        0 min,  0.033 sec
 * total energy  :  -102.5772633 Eh     change       -0.4007564E-03 Eh
   gradient norm :     0.0078921 Eh/α   predicted    -0.3999206E-03 (  -0.21%)
   displ. norm   :     0.6683894 α      lambda       -0.5371594E-03
   maximum displ.:     0.4179186 α      in ANC's #2, #1, #8, ...

........................................................................
.............................. CYCLE   33 ..............................
........................................................................

 iter      E             dE          RMSdq      gap      omega  full diag
   1   -104.2836834 -0.104284E+03  0.151E-01    0.72       0.0  T
   2   -104.2836931 -0.963173E-05  0.877E-02    0.72       1.0  T
   3   -104.2836814  0.116778E-04  0.153E-02    0.72       1.0  T
   4   -104.2836965 -0.151157E-04  0.381E-03    0.72       3.3  T
   5   -104.2836968 -0.312995E-06  0.165E-03    0.72       7.7  T
   6   -104.2836969 -0.913708E-07  0.717E-04    0.72      17.7  T
   7   -104.2836969 -0.104398E-07  0.308E-04    0.72      41.3  T
     SCC iter.                  ...        0 min,  0.026 sec
     gradient                   ...        0 min,  0.033 sec
 * total energy  :  -102.5776400 Eh     change       -0.3766349E-03 Eh
   gradient norm :     0.0089198 Eh/α   predicted    -0.3885740E-03 (   3.17%)
   displ. norm   :     0.4277019 α      lambda       -0.3853946E-03
   maximum displ.:     0.2932447 α      in ANC's #2, #1, #5, ...

........................................................................
.............................. CYCLE   34 ..............................
........................................................................

 iter      E             dE          RMSdq      gap      omega  full diag
   1   -104.2826187 -0.104283E+03  0.963E-02    0.71       0.0  T
   2   -104.2826268 -0.812722E-05  0.547E-02    0.71       1.0  T
   3   -104.2826206  0.622965E-05  0.120E-02    0.71       1.1  T
   4   -104.2826287 -0.812217E-05  0.403E-03    0.71       3.1  T
   5   -104.2826293 -0.576065E-06  0.145E-03    0.71       8.8  T
   6   -104.2826294 -0.902418E-07  0.573E-04    0.71      22.2  T
   7   -104.2826294 -0.359870E-08  0.311E-04    0.71      40.9  T
     SCC iter.                  ...        0 min,  0.027 sec
     gradient                   ...        0 min,  0.033 sec
 * total energy  :  -102.5779442 Eh     change       -0.3042139E-03 Eh
   gradient norm :     0.0086979 Eh/α   predicted    -0.2279480E-03 ( -25.07%)
   displ. norm   :     0.4734910 α      lambda       -0.4656511E-03
   maximum displ.:     0.3278749 α      in ANC's #2, #1, #5, ...

........................................................................
.............................. CYCLE   35 ..............................
........................................................................

 iter      E             dE          RMSdq      gap      omega  full diag
   1   -104.2857251 -0.104286E+03  0.101E-01    0.71       0.0  T
   2   -104.2857377 -0.125132E-04  0.567E-02    0.71       1.0  T
   3   -104.2857264  0.112944E-04  0.150E-02    0.71       1.0  T
   4   -104.2857399 -0.135596E-04  0.564E-03    0.71       2.3  T
   5   -104.2857413 -0.141592E-05  0.200E-03    0.71       6.4  T
   6   -104.2857415 -0.172213E-06  0.738E-04    0.71      17.2  T
   7   -104.2857415 -0.119471E-07  0.372E-04    0.71      34.1  T
     SCC iter.                  ...        0 min,  0.027 sec
     gradient                   ...        0 min,  0.033 sec
 * total energy  :  -102.5783074 Eh     change       -0.3631993E-03 Eh
   gradient norm :     0.0059056 Eh/α   predicted    -0.2850266E-03 ( -21.52%)
   displ. norm   :     0.5925761 α      lambda       -0.3926726E-03
   maximum displ.:     0.4143158 α      in ANC's #2, #1, #5, ...

........................................................................
.............................. CYCLE   36 ..............................
........................................................................

 iter      E             dE          RMSdq      gap      omega  full diag
   1   -104.2849822 -0.104285E+03  0.108E-01    0.71       0.0  T
   2   -104.2849928 -0.105521E-04  0.619E-02    0.70       1.0  T
   3   -104.2849838  0.893276E-05  0.135E-02    0.71       1.0  T
   4   -104.2849945 -0.107120E-04  0.499E-03    0.70       2.5  T
   5   -104.2849957 -0.114775E-05  0.175E-03    0.70       7.2  T
   6   -104.2849958 -0.136323E-06  0.609E-04    0.70      20.8  T
   7   -104.2849958 -0.422455E-08  0.308E-04    0.70      41.3  T
     SCC iter.                  ...        0 min,  0.026 sec
     gradient                   ...        0 min,  0.033 sec
 * total energy  :  -102.5786247 Eh     change       -0.3173478E-03 Eh
   gradient norm :     0.0060862 Eh/α   predicted    -0.2652833E-03 ( -16.41%)
   displ. norm   :     0.5677998 α      lambda       -0.3777491E-03
   maximum displ.:     0.4093828 α      in ANC's #2, #1, #5, ...

........................................................................
.............................. CYCLE   37 ..............................
........................................................................

 iter      E             dE          RMSdq      gap      omega  full diag
   1   -104.2875508 -0.104288E+03  0.938E-02    0.70       0.0  T
   2   -104.2875595 -0.872847E-05  0.536E-02    0.70       1.0  T
   3   -104.2875535  0.609386E-05  0.111E-02    0.70       1.1  T
   4   -104.2875604 -0.690505E-05  0.480E-03    0.70       2.6  T
   5   -104.2875617 -0.132573E-05  0.149E-03    0.70       8.5  T
   6   -104.2875618 -0.921837E-07  0.515E-04    0.70      24.6  T
   7   -104.2875618 -0.335802E-08  0.287E-04    0.70      44.2  T
     SCC iter.                  ...        0 min,  0.027 sec
     gradient                   ...        0 min,  0.033 sec
 * total energy  :  -102.5789293 Eh     change       -0.3045716E-03 Eh
   gradient norm :     0.0073749 Eh/α   predicted    -0.2497695E-03 ( -17.99%)
   displ. norm   :     0.6077506 α      lambda       -0.3867904E-03
   maximum displ.:     0.4407183 α      in ANC's #2, #1, #5, ...

........................................................................
.............................. CYCLE   38 ..............................
........................................................................

 iter      E             dE          RMSdq      gap      omega  full diag
   1   -104.2885270 -0.104289E+03  0.975E-02    0.70       0.0  T
   2   -104.2885334 -0.641046E-05  0.561E-02    0.70       1.0  T
   3   -104.2885250  0.837968E-05  0.120E-02    0.70       1.1  T
   4   -104.2885349 -0.989760E-05  0.416E-03    0.70       3.1  T
   5   -104.2885356 -0.696871E-06  0.160E-03    0.70       7.9  T
   6   -104.2885357 -0.888531E-07  0.617E-04    0.70      20.6  T
   7   -104.2885357 -0.667349E-08  0.318E-04    0.70      39.9  T
     SCC iter.                  ...        0 min,  0.027 sec
     gradient                   ...        0 min,  0.033 sec
 * total energy  :  -102.5792587 Eh     change       -0.3293772E-03 Eh
   gradient norm :     0.0073494 Eh/α   predicted    -0.2648297E-03 ( -19.60%)
   displ. norm   :     0.6462851 α      lambda       -0.4650010E-03
   maximum displ.:     0.4748851 α      in ANC's #2, #1, #5, ...

........................................................................
.............................. CYCLE   39 ..............................
........................................................................

 iter      E             dE          RMSdq      gap      omega  full diag
   1   -104.2894977 -0.104289E+03  0.102E-01    0.70       0.0  T
   2   -104.2895055 -0.784201E-05  0.584E-02    0.69       1.0  T
   3   -104.2894908  0.146773E-04  0.163E-02    0.70       1.0  T
   4   -104.2895086 -0.177482E-04  0.412E-03    0.69       3.1  T
   5   -104.2895090 -0.459495E-06  0.197E-03    0.69       6.5  T
   6   -104.2895092 -0.113941E-06  0.782E-04    0.69      16.2  T
   7   -104.2895092 -0.161585E-07  0.337E-04    0.69      37.7  T
     SCC iter.                  ...        0 min,  0.026 sec
     gradient                   ...        0 min,  0.033 sec
 * total energy  :  -102.5796345 Eh     change       -0.3758020E-03 Eh
   gradient norm :     0.0078264 Eh/α   predicted    -0.3296133E-03 ( -12.29%)
   displ. norm   :     0.6643964 α      lambda       -0.5014078E-03
   maximum displ.:     0.4966278 α      in ANC's #2, #1, #5, ...

........................................................................
.............................. CYCLE   40 ..............................
........................................................................

 iter      E             dE          RMSdq      gap      omega  full diag
   1   -104.2897269 -0.104290E+03  0.107E-01    0.69       0.0  T
   2   -104.2897353 -0.841712E-05  0.617E-02    0.69       1.0  T
   3   -104.2897207  0.145543E-04  0.160E-02    0.69       1.0  T
   4   -104.2897388 -0.180682E-04  0.414E-03    0.69       3.1  T
   5   -104.2897392 -0.446465E-06  0.207E-03    0.69       6.1  T
   6   -104.2897394 -0.118000E-06  0.770E-04    0.69      16.5  T
   7   -104.2897394 -0.187577E-07  0.330E-04    0.69      38.5  T
     SCC iter.                  ...        0 min,  0.026 sec
     gradient                   ...        0 min,  0.033 sec
 * total energy  :  -102.5800033 Eh     change       -0.3687953E-03 Eh
   gradient norm :     0.0081435 Eh/α   predicted    -0.3613764E-03 (  -2.01%)
   displ. norm   :     0.6575352 α      lambda       -0.4404881E-03
   maximum displ.:     0.4951424 α      in ANC's #2, #1, #5, ...

........................................................................
.............................. CYCLE   41 ..............................
........................................................................

 iter      E             dE          RMSdq      gap      omega  full diag
   1   -104.2884725 -0.104288E+03  0.102E-01    0.69       0.0  T
   2   -104.2884798 -0.729091E-05  0.587E-02    0.69       1.0  T
   3   -104.2884677  0.121575E-04  0.148E-02    0.69       1.0  T
   4   -104.2884825 -0.148801E-04  0.424E-03    0.69       3.0  T
   5   -104.2884830 -0.455664E-06  0.207E-03    0.69       6.1  T
   6   -104.2884832 -0.163935E-06  0.707E-04    0.69      18.0  T
   7   -104.2884832 -0.843201E-08  0.348E-04    0.69      36.5  T
     SCC iter.                  ...        0 min,  0.029 sec
     gradient                   ...        0 min,  0.033 sec
 * total energy  :  -102.5803168 Eh     change       -0.3135080E-03 Eh
   gradient norm :     0.0094402 Eh/α   predicted    -0.3154700E-03 (   0.63%)
   displ. norm   :     0.5832400 α      lambda       -0.3796855E-03
   maximum displ.:     0.4499595 α      in ANC's #2, #5, #1, ...

........................................................................
.............................. CYCLE   42 ..............................
........................................................................

 iter      E             dE          RMSdq      gap      omega  full diag
   1   -104.2903811 -0.104290E+03  0.796E-02    0.69       0.0  T
   2   -104.2903873 -0.622646E-05  0.454E-02    0.69       1.0  T
   3   -104.2903751  0.122181E-04  0.156E-02    0.69       1.0  T
   4   -104.2903895 -0.143472E-04  0.418E-03    0.69       3.0  T
   5   -104.2903900 -0.489119E-06  0.171E-03    0.69       7.4  T
   6   -104.2903901 -0.125571E-06  0.672E-04    0.69      18.9  T
   7   -104.2903901 -0.122794E-07  0.288E-04    0.69      44.0  T
     SCC iter.                  ...        0 min,  0.027 sec
     gradient                   ...        0 min,  0.033 sec
 * total energy  :  -102.5805982 Eh     change       -0.2814174E-03 Eh
   gradient norm :     0.0080519 Eh/α   predicted    -0.2544235E-03 (  -9.59%)
   displ. norm   :     0.6602967 α      lambda       -0.4189389E-03
   maximum displ.:     0.4915346 α      in ANC's #2, #1, #5, ...
 * RMSD in coord.:     1.2811043 α      energy gain  -0.8203046E-02 Eh

generating ANC from exact Hessian ...
Using Lindh-Hessian (1995)
 Shifting diagonal of input Hessian by    1.0374463380632158E-002
 Lowest  eigenvalues of input Hessian
    0.010000    0.000000    0.000000    0.000000    0.000000    0.000000
    0.000000    0.010474    0.010516    0.010608    0.010865    0.011267
    0.011386    0.011574    0.011799    0.011925    0.012633    0.013327
 Highest eigenvalues
    2.126414    2.174882    2.190319    2.196649    2.247906    2.641905


........................................................................
.............................. CYCLE   43 ..............................
........................................................................

 iter      E             dE          RMSdq      gap      omega  full diag
   1   -104.2839672 -0.104284E+03  0.114E-01    0.69       0.0  T
   2   -104.2839779 -0.106617E-04  0.656E-02    0.69       1.0  T
   3   -104.2839691  0.878392E-05  0.141E-02    0.69       1.0  T
   4   -104.2839806 -0.115091E-04  0.431E-03    0.69       2.9  T
   5   -104.2839812 -0.590100E-06  0.215E-03    0.69       5.9  T
   6   -104.2839814 -0.189141E-06  0.818E-04    0.69      15.5  T
   7   -104.2839814 -0.149965E-07  0.354E-04    0.69      35.9  T
     SCC iter.                  ...        0 min,  0.028 sec
     gradient                   ...        0 min,  0.033 sec
 * total energy  :  -102.5807984 Eh     change       -0.2002291E-03 Eh
   gradient norm :     0.0118287 Eh/α   predicted     0.0000000E+00 (-100.00%)
   displ. norm   :     0.0688995 α      lambda       -0.2971767E-03
   maximum displ.:     0.0324967 α      in ANC's #3, #2, #15, ...

........................................................................
.............................. CYCLE   44 ..............................
........................................................................

 iter      E             dE          RMSdq      gap      omega  full diag
   1   -104.2897415 -0.104290E+03  0.388E-02    0.69       0.0  T
   2   -104.2897439 -0.234088E-05  0.218E-02    0.69       1.0  T
   3   -104.2897414  0.243298E-05  0.774E-03    0.69       1.6  T
   4   -104.2897447 -0.327258E-05  0.186E-03    0.69       6.8  T
   5   -104.2897448 -0.929445E-07  0.102E-03    0.69      12.5  T
   6   -104.2897448 -0.418127E-07  0.345E-04    0.69      36.8  T
   7   -104.2897448 -0.224658E-08  0.169E-04    0.69      75.2  T
     SCC iter.                  ...        0 min,  0.028 sec
     gradient                   ...        0 min,  0.033 sec
 * total energy  :  -102.5809778 Eh     change       -0.1794158E-03 Eh
   gradient norm :     0.0038129 Eh/α   predicted    -0.1492944E-03 ( -16.79%)
   displ. norm   :     0.1295426 α      lambda       -0.2016158E-03
   maximum displ.:     0.0822868 α      in ANC's #2, #7, #15, ...

........................................................................
.............................. CYCLE   45 ..............................
........................................................................

 iter      E             dE          RMSdq      gap      omega  full diag
   1   -104.2950493 -0.104295E+03  0.118E-01    0.69       0.0  T
   2   -104.2950610 -0.116783E-04  0.651E-02    0.69       1.0  T
   3   -104.2950578  0.318008E-05  0.118E-02    0.69       1.1  T
   4   -104.2950657 -0.784472E-05  0.296E-03    0.69       4.3  T
   5   -104.2950658 -0.126796E-06  0.169E-03    0.69       7.5  T
   6   -104.2950659 -0.106557E-06  0.480E-04    0.69      26.4  T
   7   -104.2950659 -0.877178E-08  0.199E-04    0.69      63.9  T
     SCC iter.                  ...        0 min,  0.028 sec
     gradient                   ...        0 min,  0.033 sec
 * total energy  :  -102.5808986 Eh     change        0.7927915E-04 Eh
   gradient norm :     0.0094207 Eh/α   predicted    -0.1025682E-03 (-229.38%)
   displ. norm   :     0.0677996 α      lambda       -0.3178917E-03
   maximum displ.:     0.0489945 α      in ANC's #3, #7, #23, ...

........................................................................
.............................. CYCLE   46 ..............................
........................................................................

 iter      E             dE          RMSdq      gap      omega  full diag
   1   -104.2949250 -0.104295E+03  0.867E-02    0.69       0.0  T
   2   -104.2949315 -0.646972E-05  0.477E-02    0.69       1.0  T
   3   -104.2949327 -0.119360E-05  0.510E-03    0.69       2.5  T
   4   -104.2949338 -0.110630E-05  0.204E-03    0.69       6.2  T
   5   -104.2949339 -0.114985E-06  0.691E-04    0.69      18.4  T
   6   -104.2949339 -0.175778E-07  0.264E-04    0.69      48.1  T
     SCC iter.                  ...        0 min,  0.024 sec
     gradient                   ...        0 min,  0.033 sec
 * total energy  :  -102.5810729 Eh     change       -0.1743145E-03 Eh
   gradient norm :     0.0033013 Eh/α   predicted    -0.1596765E-03 (  -8.40%)
   displ. norm   :     0.0740874 α      lambda       -0.5650551E-04
   maximum displ.:     0.0438360 α      in ANC's #2, #3, #5, ...

........................................................................
.............................. CYCLE   47 ..............................
........................................................................

 iter      E             dE          RMSdq      gap      omega  full diag
   1   -104.2934179 -0.104293E+03  0.210E-02    0.69       0.0  T
   2   -104.2934186 -0.664572E-06  0.115E-02    0.69       1.1  T
   3   -104.2934184  0.147900E-06  0.274E-03    0.69       4.6  T
   4   -104.2934186 -0.223750E-06  0.134E-03    0.69       9.4  T
   5   -104.2934187 -0.717022E-07  0.408E-04    0.69      31.1  T
   6   -104.2934187 -0.861060E-08  0.147E-04    0.69      86.6  T
     SCC iter.                  ...        0 min,  0.024 sec
     gradient                   ...        0 min,  0.033 sec
 * total energy  :  -102.5811215 Eh     change       -0.4863170E-04 Eh
   gradient norm :     0.0018721 Eh/α   predicted    -0.2840816E-04 ( -41.59%)
   displ. norm   :     0.5592040 α      lambda       -0.2089453E-03
   maximum displ.:     0.3496732 α      in ANC's #2, #3, #5, ...

   *** GEOMETRY OPTIMIZATION CONVERGED AFTER 47 ITERATIONS ***

------------------------------------------------------------------------
 total energy gain   :        -0.3845325 Eh     -241.2978 kcal/mol
 total RMSD          :         2.1361412 a0        1.1304 Å
 total power (kW/mol):       -21.4806365 (step) -279.1323 (real)
------------------------------------------------------------------------

 ANCopt (total)                0 d,  0 h,  0 min,  3.617 sec
 optimizer setup                ...        0 min,  0.000 sec (  0.003%)
 model hessian                  ...        0 min,  0.036 sec (  0.999%)
 ANC generation                 ...        0 min,  0.007 sec (  0.186%)
 coordinate transformation      ...        0 min,  0.002 sec (  0.066%)
 single point calculation       ...        0 min,  3.549 sec ( 98.136%)
 optimization log               ...        0 min,  0.012 sec (  0.337%)
 hessian update                 ...        0 min,  0.002 sec (  0.046%)
 rational function              ...        0 min,  0.006 sec (  0.172%)

================
 final structure:
================
 xtb: 6.7.1 (edcfbbe)
          08202606263D

 62 68  0     0  0            999 V2000
    1.8696    6.6953    5.3782 H   0  0  0  0  0  0  0  0  0  0  0  0
    0.6136   -0.4154   -0.0705 C   0  0  0  0  0  0  0  0  0  0  0  0
   -1.0535    4.6120    0.2060 H   0  0  0  0  0  0  0  0  0  0  0  0
   -1.3015   -3.3697   -2.5339 N   0  0  0  0  0  0  0  0  0  0  0  0
   -3.7287   -3.5133   -3.5228 H   0  0  0  0  0  0  0  0  0  0  0  0
    1.6258    2.4443    3.3463 C   0  0  0  0  0  0  0  0  0  0  0  0
   -3.5927   -5.4557   -4.4211 C   0  0  0  0  0  0  0  0  0  0  0  0
    1.3683   -3.0414   -0.1988 C   0  0  0  0  0  0  0  0  0  0  0  0
   -3.0330    0.5982   -4.1603 H   0  0  0  0  0  0  0  0  0  0  0  0
    2.5423   -2.7010    1.5576 H   0  0  0  0  0  0  0  0  0  0  0  0
    0.0277    3.6400    1.7681 C   0  0  0  0  0  0  0  0  0  0  0  0
    0.3459    0.8914    0.2345 N   0  0  0  0  0  0  0  0  0  0  0  0
    1.4397    4.7684    4.6592 C   0  0  0  0  0  0  0  0  0  0  0  0
   -1.8738    2.9187    2.5214 H   0  0  0  0  0  0  0  0  0  0  0  0
   -1.9331   -0.6150   -2.6652 C   0  0  0  0  0  0  0  0  0  0  0  0
    3.0464    1.5227    4.8941 O   0  0  0  0  0  0  0  0  0  0  0  0
   -1.1507    3.6917    2.7730 C   0  0  0  0  0  0  0  0  0  0  0  0
    3.1591    3.1228    6.1925 H   0  0  0  0  0  0  0  0  0  0  0  0
    2.2351    5.7080    5.1555 C   0  0  0  0  0  0  0  0  0  0  0  0
   -1.3850    2.8948    0.2591 H   0  0  0  0  0  0  0  0  0  0  0  0
   -0.8262    3.5092    3.7922 H   0  0  0  0  0  0  0  0  0  0  0  0
   -0.6621   -7.7365   -4.5203 C   0  0  0  0  0  0  0  0  0  0  0  0
   -0.0535   -8.6817   -4.7423 N   0  0  0  0  0  0  0  0  0  0  0  0
    0.1717    3.5158   -0.3954 H   0  0  0  0  0  0  0  0  0  0  0  0
   -2.7821   -6.5736   -4.6777 C   0  0  0  0  0  0  0  0  0  0  0  0
    1.5448    4.8376    2.5212 H   0  0  0  0  0  0  0  0  0  0  0  0
   -0.5966    3.6360    0.3628 C   0  0  0  0  0  0  0  0  0  0  0  0
    1.6917    0.1015    1.8616 C   0  0  0  0  0  0  0  0  0  0  0  0
    0.8239    0.9603   -2.5924 H   0  0  0  0  0  0  0  0  0  0  0  0
    0.8810    2.4326    2.1454 C   0  0  0  0  0  0  0  0  0  0  0  0
   -0.7608    2.0529   -4.1953 H   0  0  0  0  0  0  0  0  0  0  0  0
   -1.0045    1.1832   -3.6176 C   0  0  0  0  0  0  0  0  0  0  0  0
    2.4337    0.1242    3.0254 C   0  0  0  0  0  0  0  0  0  0  0  0
   -0.2907    1.4579   -0.2930 H   0  0  0  0  0  0  0  0  0  0  0  0
    2.3866    1.3066    3.7301 C   0  0  0  0  0  0  0  0  0  0  0  0
    1.6447   -4.0805   -0.2888 H   0  0  0  0  0  0  0  0  0  0  0  0
    0.4750   -2.5227   -1.1535 C   0  0  0  0  0  0  0  0  0  0  0  0
    0.4025    5.0028    4.4722 H   0  0  0  0  0  0  0  0  0  0  0  0
    3.0082   -0.7187    3.3697 H   0  0  0  0  0  0  0  0  0  0  0  0
    0.3589   -5.4456   -3.1962 N   0  0  0  0  0  0  0  0  0  0  0  0
    1.4642   -0.9498    0.9160 C   0  0  0  0  0  0  0  0  0  0  0  0
    1.8691   -2.2778    0.8292 C   0  0  0  0  0  0  0  0  0  0  0  0
   -0.6641   -0.4701   -2.1560 C   0  0  0  0  0  0  0  0  0  0  0  0
    1.8898    3.4019    4.4078 C   0  0  0  0  0  0  0  0  0  0  0  0
    0.1052   -1.1708   -1.1315 C   0  0  0  0  0  0  0  0  0  0  0  0
    0.7863   -4.4742   -2.4972 N   0  0  0  0  0  0  0  0  0  0  0  0
   -2.6319   -1.3740   -2.3859 H   0  0  0  0  0  0  0  0  0  0  0  0
   -0.9378   -5.4878   -3.5633 C   0  0  0  0  0  0  0  0  0  0  0  0
    0.3381    5.6669    1.7777 H   0  0  0  0  0  0  0  0  0  0  0  0
    2.7401    2.7750    5.2678 C   0  0  0  0  0  0  0  0  0  0  0  0
    3.2793    5.5281    5.3450 H   0  0  0  0  0  0  0  0  0  0  0  0
   -1.7783   -4.3757   -3.2800 C   0  0  0  0  0  0  0  0  0  0  0  0
   -1.4680   -6.6034   -4.2638 C   0  0  0  0  0  0  0  0  0  0  0  0
   -0.1241    0.6516   -2.7315 N   0  0  0  0  0  0  0  0  0  0  0  0
    0.8898    4.8171    1.7525 N   0  0  0  0  0  0  0  0  0  0  0  0
   -3.1121   -4.3700   -3.7428 C   0  0  0  0  0  0  0  0  0  0  0  0
   -2.1432    0.4269   -3.5876 C   0  0  0  0  0  0  0  0  0  0  0  0
   -4.6173   -5.4700   -4.7619 H   0  0  0  0  0  0  0  0  0  0  0  0
   -1.6506    4.6580    2.7210 H   0  0  0  0  0  0  0  0  0  0  0  0
   -0.0559   -3.4783   -2.1162 C   0  0  0  0  0  0  0  0  0  0  0  0
    0.9467    1.2416    1.4242 C   0  0  0  0  0  0  0  0  0  0  0  0
   -3.1928   -7.4225   -5.2042 H   0  0  0  0  0  0  0  0  0  0  0  0
  1 19  1  0  0  0  0
  2 12  4  0  0  0  0
  2 41  4  0  0  0  0
  2 45  4  0  0  0  0
  3 27  1  0  0  0  0
  4 52  4  0  0  0  0
  4 60  4  0  0  0  0
  5 56  1  0  0  0  0
  6 30  4  0  0  0  0
  6 35  4  0  0  0  0
  6 44  4  0  0  0  0
  7 25  4  0  0  0  0
  7 56  4  0  0  0  0
  7 58  1  0  0  0  0
  8 36  1  0  0  0  0
  8 37  4  0  0  0  0
  8 42  4  0  0  0  0
  9 57  1  0  0  0  0
 10 42  1  0  0  0  0
 11 17  1  0  0  0  0
 11 27  1  0  0  0  0
 11 30  1  0  0  0  0
 11 55  1  0  0  0  0
 12 34  1  0  0  0  0
 12 61  4  0  0  0  0
 13 19  1  0  0  0  0
 13 38  1  0  0  0  0
 13 44  1  0  0  0  0
 14 17  1  0  0  0  0
 15 43  4  0  0  0  0
 15 47  1  0  0  0  0
 15 57  4  0  0  0  0
 16 35  4  0  0  0  0
 16 50  4  0  0  0  0
 17 21  1  0  0  0  0
 17 59  1  0  0  0  0
 18 50  1  0  0  0  0
 19 51  1  0  0  0  0
 20 27  1  0  0  0  0
 22 23  3  0  0  0  0
 22 53  1  0  0  0  0
 24 27  1  0  0  0  0
 25 53  4  0  0  0  0
 25 62  1  0  0  0  0
 26 55  1  0  0  0  0
 28 33  4  0  0  0  0
 28 41  4  0  0  0  0
 28 61  4  0  0  0  0
 29 54  1  0  0  0  0
 30 61  4  0  0  0  0
 31 32  1  0  0  0  0
 32 54  4  0  0  0  0
 32 57  4  0  0  0  0
 33 35  4  0  0  0  0
 33 39  1  0  0  0  0
 37 45  4  0  0  0  0
 37 60  1  0  0  0  0
 40 46  4  0  0  0  0
 40 48  4  0  0  0  0
 41 42  4  0  0  0  0
 43 45  1  0  0  0  0
 43 54  4  0  0  0  0
 44 50  4  0  0  0  0
 46 60  4  0  0  0  0
 48 52  4  0  0  0  0
 48 53  4  0  0  0  0
 49 55  1  0  0  0  0
 52 56  4  0  0  0  0
M  END
$$$$

 Bond Distances (Angstroems)
 ---------------------------
H1-C19=1.0761        C2-N12=1.3683        C2-C41=1.4080        C2-C45=1.3982        H3-C27=1.0891        N4-C52=1.3401        
N4-C60=1.3182        H5-C56=1.0783        C6-C30=1.4131        C6-C35=1.4213        C6-C44=1.4538        C7-C25=1.4044        
C7-C56=1.3674        C7-H58=1.0799        C8-H36=1.0789        C8-C37=1.4065        C8-C42=1.3751        H9-C57=1.0719        
H10-C42=1.0784       C11-C17=1.5496       C11-C27=1.5377       C11-C30=1.5259       C11-N55=1.4591       N12-C2=1.3683        
N12-H34=1.0023       N12-C61=1.3780       C13-C19=1.3273       C13-H38=1.0797       C13-C44=1.4605       H14-C17=1.0880       
C15-C43=1.3750       C15-H47=1.0688       C15-C57=1.4073       O16-C35=1.3554       O16-C50=1.3423       C17-C11=1.5496       
C17-H14=1.0880       C17-H21=1.0851       C17-H59=1.0892       H18-C50=1.0730       C19-H1=1.0761        C19-C13=1.3273       
C19-H51=1.0764       H20-C27=1.0870       H21-C17=1.0851       C22-N23=1.1459       C22-C53=1.4139       N23-C22=1.1459       
H24-C27=1.0861       C25-C7=1.4044        C25-C53=1.3781       C25-H62=1.0801       H26-N55=1.0102       C27-H3=1.0891        
C27-C11=1.5377       C27-H20=1.0870       C27-H24=1.0861       C28-C33=1.3804       C28-C41=1.4322       C28-C61=1.4304       
H29-N54=1.0066       C30-C6=1.4131        C30-C11=1.5259       C30-C61=1.3939       H31-C32=1.0722       C32-H31=1.0722       
C32-N54=1.3575       C32-C57=1.3674       C33-C28=1.3804       C33-C35=1.3773       C33-H39=1.0766       H34-N12=1.0023       
C35-C6=1.4213        C35-O16=1.3554       C35-C33=1.3773       H36-C8=1.0789        C37-C8=1.4065        C37-C45=1.4018       
C37-C60=1.4566       H38-C13=1.0797       H39-C33=1.0766       N40-N46=1.2708       N40-C48=1.3483       C41-C2=1.4080        
C41-C28=1.4322       C41-C42=1.3911       C42-C8=1.3751        C42-H10=1.0784       C42-C41=1.3911       C43-C15=1.3750       
C43-C45=1.4603       C43-N54=1.3715       C44-C6=1.4538        C44-C13=1.4605       C44-C50=1.3622       C45-C2=1.3982        
C45-C37=1.4018       C45-C43=1.4603       N46-N40=1.2708       N46-C60=1.3588       H47-C15=1.0688       C48-N40=1.3483       
C48-C52=1.4225       C48-C53=1.4200       H49-N55=1.0135       C50-O16=1.3423       C50-H18=1.0730       C50-C44=1.3622       
H51-C19=1.0764       C52-N4=1.3401        C52-C48=1.4225       C52-C56=1.4119       C53-C22=1.4139       C53-C25=1.3781       
C53-C48=1.4200       N54-H29=1.0066       N54-C32=1.3575       N54-C43=1.3715       N55-C11=1.4591       N55-H26=1.0102       
N55-H49=1.0135       C56-H5=1.0783        C56-C7=1.3674        C56-C52=1.4119       C57-H9=1.0719        C57-C15=1.4073       
C57-C32=1.3674       H58-C7=1.0799        H59-C17=1.0892       C60-N4=1.3182        C60-C37=1.4566       C60-N46=1.3588       
C61-N12=1.3780       C61-C28=1.4304       C61-C30=1.3939       H62-C25=1.0801       
 C  H  Rav=1.0797 sigma=0.0060  Rmin=1.0688  Rmax=1.0892    19
 C  C  Rav=1.4166 sigma=0.0492  Rmin=1.3273  Rmax=1.5496    32
 N  H  Rav=1.0081 sigma=0.0042  Rmin=1.0023  Rmax=1.0135     4
 N  C  Rav=1.3446 sigma=0.0749  Rmin=1.1459  Rmax=1.4591    10
 N  N  Rav=1.2708 sigma=0.0000  Rmin=1.2708  Rmax=1.2708     1
 O  C  Rav=1.3488 sigma=0.0065  Rmin=1.3423  Rmax=1.3554     2

 selected bond angles (degree)
 --------------------
C41-C2-N12=108.94              C45-C2-N12=127.88              C45-C2-C41=123.11              C60-N4-C52=116.79              
C35-C6-C30=120.33              C44-C6-C30=136.19              C44-C6-C35=103.47              C56-C7-C25=121.32              
H58-C7-C25=118.65              H58-C7-C56=120.03              C37-C8-H36=117.47              C42-C8-H36=120.25              
C42-C8-C37=122.27              

 selected dihedral angles (degree)
 ---------------------------------

           -------------------------------------------------
          |                Final Singlepoint                |
           -------------------------------------------------

          ...................................................
          :                      SETUP                      :
          :.................................................:
          :  # basis functions                 179          :
          :  # atomic orbitals                 179          :
          :  # shells                          101          :
          :  # electrons                       188          :
          :  max. iterations                   250          :
          :  Hamiltonian                  GFN2-xTB          :
          :  restarted?                      false          :
          :  GBSA solvation                  false          :
          :  PC potential                    false          :
          :  electronic temp.          300.0000000     K    :
          :  accuracy                    1.0000000          :
          :  -> integral cutoff          0.2500000E+02      :
          :  -> integral neglect         0.1000000E-07      :
          :  -> SCF convergence          0.1000000E-05 Eh   :
          :  -> wf. convergence          0.1000000E-03 e    :
          :  Broyden damping             0.4000000          :
          :  net charge                          0          :
          :  unpaired electrons                  0          :
          ...................................................

 iter      E             dE          RMSdq      gap      omega  full diag
   1   -104.2934187 -0.104293E+03  0.704E-05    0.69       0.0  T
   2   -104.2934187 -0.483311E-10  0.501E-05    0.69     253.4  T
   3   -104.2934187 -0.123038E-09  0.256E-05    0.69     495.9  T

   *** convergence criteria satisfied after 3 iterations ***

         #    Occupation            Energy/Eh            Energy/eV
      -------------------------------------------------------------
         1        2.0000           -0.7409518             -20.1623
       ...           ...                  ...                  ...
        88        2.0000           -0.3986000             -10.8465
        89        2.0000           -0.3967314             -10.7956
        90        2.0000           -0.3831692             -10.4266
        91        2.0000           -0.3729886             -10.1495
        92        2.0000           -0.3673226              -9.9954
        93        2.0000           -0.3605245              -9.8104
        94        2.0000           -0.3492941              -9.5048 (HOMO)
        95        0.0000           -0.3240839              -8.8188 (LUMO)
        96                         -0.2824935              -7.6870
        97                         -0.2640470              -7.1851
        98                         -0.2551511              -6.9430
        99                         -0.2397638              -6.5243
       ...                                ...                  ...
       179                          1.1684447              31.7950
      -------------------------------------------------------------
                  HL-Gap            0.0252102 Eh            0.6860 eV
             Fermi-level           -0.3366890 Eh           -9.1618 eV

 SCC (total)                   0 d,  0 h,  0 min,  0.059 sec
 SCC setup                      ...        0 min,  0.000 sec (  0.517%)
 Dispersion                     ...        0 min,  0.001 sec (  1.272%)
 classical contributions        ...        0 min,  0.000 sec (  0.256%)
 integral evaluation            ...        0 min,  0.010 sec ( 17.595%)
 iterations                     ...        0 min,  0.014 sec ( 23.396%)
 molecular gradient             ...        0 min,  0.033 sec ( 56.058%)
 printout                       ...        0 min,  0.001 sec (  0.883%)

         :::::::::::::::::::::::::::::::::::::::::::::::::::::
         ::                     SUMMARY                     ::
         :::::::::::::::::::::::::::::::::::::::::::::::::::::
         :: total energy            -102.581121503034 Eh    ::
         :: gradient norm              0.001876471988 Eh/a0 ::
         :: HOMO-LUMO gap              0.686003490681 eV    ::
         ::.................................................::
         :: SCC energy              -104.293306405385 Eh    ::
         :: -> isotropic ES            0.055757118203 Eh    ::
         :: -> anisotropic ES          0.016064588824 Eh    ::
         :: -> anisotropic XC          0.079463214879 Eh    ::
         :: -> dispersion             -0.085288709485 Eh    ::
         :: repulsion energy           1.712184902350 Eh    ::
         :: add. restraining           0.000000000000 Eh    ::
         :: total charge               0.000000000025 e     ::
         :::::::::::::::::::::::::::::::::::::::::::::::::::::

           -------------------------------------------------
          |                Property Printout                |
           -------------------------------------------------

    * Orbital Energies and Occupations

         #    Occupation            Energy/Eh            Energy/eV
      -------------------------------------------------------------
         1        2.0000           -0.7409518             -20.1623
       ...           ...                  ...                  ...
        82        2.0000           -0.4284307             -11.6582
        83        2.0000           -0.4273528             -11.6289
        84        2.0000           -0.4234154             -11.5217
        85        2.0000           -0.4178715             -11.3709
        86        2.0000           -0.4134464             -11.2504
        87        2.0000           -0.4111133             -11.1870
        88        2.0000           -0.3986000             -10.8465
        89        2.0000           -0.3967314             -10.7956
        90        2.0000           -0.3831692             -10.4266
        91        2.0000           -0.3729886             -10.1495
        92        2.0000           -0.3673226              -9.9954
        93        2.0000           -0.3605245              -9.8104
        94        2.0000           -0.3492941              -9.5048 (HOMO)
        95        0.0000           -0.3240839              -8.8188 (LUMO)
        96                         -0.2824935              -7.6870
        97                         -0.2640470              -7.1851
        98                         -0.2551511              -6.9430
        99                         -0.2397638              -6.5243
       100                         -0.2283516              -6.2138
       101                         -0.2129604              -5.7949
       102                         -0.2100770              -5.7165
       103                         -0.1991835              -5.4201
       104                         -0.1883439              -5.1251
       105                         -0.1830765              -4.9818
       ...                                ...                  ...
       179                          1.1684447              31.7950
      -------------------------------------------------------------
                  HL-Gap            0.0252102 Eh            0.6860 eV
             Fermi-level           -0.3366890 Eh           -9.1618 eV

     #   Z          covCN         q      C6AA      α(0)
     1   1 H        0.926     0.039     2.462     2.454
     2   6 C        3.073     0.048    26.845     8.495
     3   1 H        0.925     0.048     2.350     2.397
     4   7 N        1.845    -0.245    27.232     7.734
     5   1 H        0.926     0.063     2.164     2.300
     6   6 C        3.070    -0.025    28.550     8.761
     7   6 C        2.916    -0.020    28.505     8.755
     8   6 C        2.931    -0.039    28.975     8.828
     9   1 H        0.926     0.025     2.661     2.551
    10   1 H        0.926     0.042     2.425     2.435
    11   6 C        3.831     0.095    18.999     6.202
    12   7 N        2.765    -0.129    23.793     7.245
    13   6 C        2.893    -0.034    28.856     8.807
    14   1 H        0.925     0.033     2.545     2.495
    15   6 C        3.060    -0.066    29.570     8.917
    16   8 O        1.718    -0.200    17.336     5.622
    17   6 C        3.760    -0.114    22.729     6.797
    18   1 H        0.926     0.049     2.336     2.390
    19   6 C        2.841    -0.096    30.402     9.036
    20   1 H        0.925     0.033     2.544     2.494
    21   1 H        0.925     0.040     2.452     2.449
    22   6 C        1.910     0.122    28.115     8.563
    23   7 N        0.911    -0.210    25.569     7.313
    24   1 H        0.925     0.046     2.373     2.409
    25   6 C        2.926    -0.019    28.472     8.751
    26   1 H        0.860     0.152     1.386     1.844
    27   6 C        3.767    -0.115    22.739     6.796
    28   6 C        3.101    -0.016    28.276     8.714
    29   1 H        0.860     0.156     1.358     1.825
    30   6 C        2.960    -0.025    28.625     8.776
    31   1 H        0.926     0.027     2.632     2.537
    32   6 C        3.026    -0.013    28.317     8.729
    33   6 C        2.902    -0.058    29.436     8.896
    34   1 H        0.861     0.178     1.225     1.734
    35   6 C        3.146     0.113    25.275     8.225
    36   1 H        0.926     0.053     2.282     2.362
    37   6 C        2.987    -0.008    28.216     8.713
    38   1 H        0.926     0.048     2.342     2.393
    39   1 H        0.926     0.052     2.289     2.366
    40   7 N        1.933    -0.112    24.199     7.294
    41   6 C        3.062    -0.012    28.263     8.718
    42   6 C        2.910    -0.033    28.828     8.804
    43   6 C        3.080     0.027    27.308     8.567
    44   6 C        3.038    -0.028    28.667     8.782
    45   6 C        2.964    -0.012    28.318     8.729
    46   7 N        1.939    -0.145    24.903     7.400
    47   1 H        0.927     0.043     2.413     2.429
    48   6 C        2.945     0.072    26.385     8.425
    49   1 H        0.860     0.135     1.511     1.926
    50   6 C        3.064     0.076    26.239     8.400
    51   1 H        0.926     0.037     2.493     2.469
    52   6 C        2.980     0.101    25.761     8.326
    53   6 C        2.966     0.016    27.648     8.625
    54   7 N        2.826    -0.093    23.058     7.132
    55   7 N        2.645    -0.354    29.134     8.016
    56   6 C        2.914    -0.034    28.856     8.809
    57   6 C        3.054    -0.066    29.589     8.921
    58   1 H        0.926     0.052     2.299     2.371
    59   1 H        0.925     0.032     2.560     2.502
    60   6 C        2.924     0.174    24.261     8.077
    61   6 C        3.039     0.044    26.982     8.520
    62   1 H        0.926     0.053     2.279     2.361

 Mol. C6AA /au·bohr⁶  :      55377.149224
 Mol. C8AA /au·bohr⁸  :    1375979.176957
 Mol. α(0) /au        :        373.711627


Wiberg/Mayer (AO) data.
largest (>0.10) Wiberg bond orders for each atom

 ---------------------------------------------------------------------------
     #   Z sym  total        # sym  WBO       # sym  WBO       # sym  WBO
 ---------------------------------------------------------------------------
     1   1 H    0.998 --    19 C    0.978
     2   6 C    3.958 --    45 C    1.310    41 C    1.262    12 N    1.167
     3   1 H    0.997 --    27 C    0.981
     4   7 N    3.066 --    60 C    1.436    52 C    1.323
     5   1 H    0.996 --    56 C    0.965
     6   6 C    3.963 --    30 C    1.326    35 C    1.256    44 C    1.156
     7   6 C    3.990 --    56 C    1.559    25 C    1.323    58 H    0.968
     8   6 C    3.975 --    42 C    1.497    37 C    1.326    36 H    0.964
     9   1 H    0.999 --    57 C    0.975
    10   1 H    0.997 --    42 C    0.968
    11   6 C    3.980 --    55 N    1.007    27 C    0.992    30 C    0.979
                            17 C    0.968
    12   7 N    3.505 --     2 C    1.167    61 C    1.150    34 H    0.919
    13   6 C    3.991 --    19 C    1.908    44 C    1.068    38 H    0.952
    14   1 H    0.999 --    17 C    0.985
    15   6 C    3.969 --    43 C    1.494    57 C    1.338    47 H    0.971
    16   8 O    2.403 --    50 C    1.119    35 C    1.068
    17   6 C    3.994 --    14 H    0.985    59 H    0.984    21 H    0.980
                            11 C    0.968
    18   1 H    0.997 --    50 C    0.965
    19   6 C    3.985 --    13 C    1.908     1 H    0.978    51 H    0.977
    20   1 H    0.999 --    27 C    0.975
    21   1 H    0.998 --    17 C    0.980
    22   6 C    3.949 --    23 N    2.809    53 C    1.094
    23   7 N    2.981 --    22 C    2.809
    24   1 H    0.998 --    27 C    0.982
    25   6 C    3.978 --    53 C    1.476     7 C    1.323    62 H    0.969
    26   1 H    0.977 --    55 N    0.939
    27   6 C    3.994 --    11 C    0.992    24 H    0.982     3 H    0.981
                            20 H    0.975
    28   6 C    3.981 --    33 C    1.391    61 C    1.218    41 C    1.157
    29   1 H    0.976 --    54 N    0.947
    30   6 C    3.976 --    61 C    1.382     6 C    1.326    11 C    0.979
                            33 C    0.111
    31   1 H    0.999 --    32 C    0.971
    32   6 C    3.935 --    57 C    1.546    54 N    1.233    31 H    0.971
                            43 C    0.128
    33   6 C    3.971 --    28 C    1.391    35 C    1.387    39 H    0.964
                            30 C    0.111
    34   1 H    0.967 --    12 N    0.919
    35   6 C    3.911 --    33 C    1.387     6 C    1.256    16 O    1.068
    36   1 H    0.996 --     8 C    0.964
    37   6 C    3.961 --    45 C    1.353     8 C    1.326    60 C    1.071
    38   1 H    0.998 --    13 C    0.952
    39   1 H    0.995 --    33 C    0.964
    40   7 N    3.074 --    46 N    1.535    48 C    1.313
    41   6 C    3.976 --    42 C    1.340     2 C    1.262    28 C    1.157
    42   6 C    3.965 --     8 C    1.497    41 C    1.340    10 H    0.968
    43   6 C    3.941 --    15 C    1.494    54 N    1.186    45 C    1.052
                            32 C    0.128
    44   6 C    3.976 --    50 C    1.585     6 C    1.156    13 C    1.068
    45   6 C    3.979 --    37 C    1.353     2 C    1.310    43 C    1.052
    46   7 N    3.068 --    40 N    1.535    60 C    1.259
    47   1 H    0.998 --    15 C    0.971
    48   6 C    3.977 --    40 N    1.313    52 C    1.211    53 C    1.198
    49   1 H    0.981 --    55 N    0.964
    50   6 C    3.901 --    44 C    1.585    16 O    1.119    18 H    0.965
    51   1 H    0.998 --    19 C    0.977
    52   6 C    3.979 --     4 N    1.323    56 C    1.246    48 C    1.211
    53   6 C    3.988 --    25 C    1.476    48 C    1.198    22 C    1.094
                            56 C    0.106
    54   7 N    3.569 --    32 C    1.233    43 C    1.186    29 H    0.947
    55   7 N    3.016 --    11 C    1.007    49 H    0.964    26 H    0.939
    56   6 C    3.954 --     7 C    1.559    52 C    1.246     5 H    0.965
                            53 C    0.106
    57   6 C    3.979 --    32 C    1.546    15 C    1.338     9 H    0.975
    58   1 H    0.996 --     7 C    0.968
    59   1 H    0.998 --    17 C    0.984
    60   6 C    3.960 --     4 N    1.436    46 N    1.259    37 C    1.071
    61   6 C    3.954 --    30 C    1.382    28 C    1.218    12 N    1.150
    62   1 H    0.996 --    25 C    0.969
 ---------------------------------------------------------------------------

Topologies differ in bond orders
Writing corrected topology to xtbtopo.sdf

molecular dipole:
                 x           y           z       tot (Debye)
 q only:       -1.127       2.193       0.417
   full:       -1.806       2.791       0.717       8.644
molecular quadrupole (traceless):
                xx          xy          yy          xz          yz          zz
 q only:       15.737      16.545     -20.534      10.246     -12.973       4.797
  q+dip:       19.526      24.650     -29.337      22.136     -13.026       9.811
   full:       18.714      28.071     -32.570      17.472     -16.119      13.855

           -------------------------------------------------
          |                Geometry Summary                 |
           -------------------------------------------------

      molecular mass/u    :      509.5617775
   center of mass at/Å    :        0.1625496      -0.7564128      -0.2812875
  moments of inertia/u·Å² :        0.1982234E+04   0.1223094E+05   0.1367208E+05
rotational constants/cm⁻¹ :        0.8504360E-02   0.1378278E-02   0.1232997E-02

 * 61 selected distances

     #   Z          #   Z                                           value/Å
     2   6 C       12   7 N                                       1.3683065
    14   1 H       17   6 C                                       1.0879514
     1   1 H       19   6 C                                       1.0760999
    13   6 C       19   6 C                                       1.3273310
    17   6 C       21   1 H                                       1.0850809
    22   6 C       23   7 N                                       1.1459340
     7   6 C       25   6 C                                       1.4044498
     3   1 H       27   6 C                                       1.0890705
    11   6 C       27   6 C                                       1.5376912 (max)
    20   1 H       27   6 C                                       1.0869928
    24   1 H       27   6 C                                       1.0861449
     6   6 C       30   6 C                                       1.4131167
    31   1 H       32   6 C                                       1.0721507
    28   6 C       33   6 C                                       1.3804139
    12   7 N       34   1 H                                       1.0022727 (min)
     6   6 C       35   6 C                                       1.4213356
    16   8 O       35   6 C                                       1.3553573
    33   6 C       35   6 C                                       1.3773078
     8   6 C       36   1 H                                       1.0789381
     8   6 C       37   6 C                                       1.4065383
    13   6 C       38   1 H                                       1.0796912
    33   6 C       39   1 H                                       1.0765946
     2   6 C       41   6 C                                       1.4079786
    28   6 C       41   6 C                                       1.4321738
     8   6 C       42   6 C                                       1.3750594
    10   1 H       42   6 C                                       1.0783561
    41   6 C       42   6 C                                       1.3910675
    15   6 C       43   6 C                                       1.3750258
     2   6 C       45   6 C                                       1.3981719
    37   6 C       45   6 C                                       1.4017946
    40   7 N       46   7 N                                       1.2707632
    15   6 C       47   1 H                                       1.0688202
    40   7 N       48   6 C                                       1.3483296
    16   8 O       50   6 C                                       1.3423165
    18   1 H       50   6 C                                       1.0730495
    44   6 C       50   6 C                                       1.3621876
    19   6 C       51   1 H                                       1.0764254
     4   7 N       52   6 C                                       1.3401036
    48   6 C       52   6 C                                       1.4224997
    25   6 C       53   6 C                                       1.3780726
    48   6 C       53   6 C                                       1.4200072
    29   1 H       54   7 N                                       1.0065970
    32   6 C       54   7 N                                       1.3575053
    43   6 C       54   7 N                                       1.3714803
    11   6 C       55   7 N                                       1.4590948
    26   1 H       55   7 N                                       1.0101852
    49   1 H       55   7 N                                       1.0135085
     5   1 H       56   6 C                                       1.0782554
     7   6 C       56   6 C                                       1.3673509
    52   6 C       56   6 C                                       1.4118850
     9   1 H       57   6 C                                       1.0718892
    15   6 C       57   6 C                                       1.4073407
    32   6 C       57   6 C                                       1.3673780
     7   6 C       58   1 H                                       1.0798587
Note: The following floating-point exceptions are signalling: IEEE_UNDERFLOW_FLAG IEEE_DENORMAL
normal termination of xtb
    17   6 C       59   1 H                                       1.0892429
     4   7 N       60   6 C                                       1.3182260
    46   7 N       60   6 C                                       1.3588040
    12   7 N       61   6 C                                       1.3780318
    28   6 C       61   6 C                                       1.4304432
    30   6 C       61   6 C                                       1.3939231
    25   6 C       62   1 H                                       1.0800760

 * 6 distinct bonds (by element types)

   Z      Z             #   av. dist./Å        max./Å        min./Å
   1 H    6 C          19     1.0797204     1.0892429     1.0688202
   6 C    6 C          25     1.4004218     1.5376912     1.3273310
   1 H    7 N           4     1.0081408     1.0135085     1.0022727
   6 C    7 N          10     1.3445816     1.4590948     1.1459340
   7 N    7 N           1     1.2707632     1.2707632     1.2707632
   6 C    8 O           2     1.3488369     1.3553573     1.3423165


optimized geometry written to: xtbopt.sdf


           -------------------------------------------------
          | TOTAL ENERGY             -102.581121503034 Eh   |
          | GRADIENT NORM               0.001876471988 Eh/α |
          | HOMO-LUMO GAP               0.686003490681 eV   |
           -------------------------------------------------

------------------------------------------------------------------------
 * finished run on 2026/08/20 at 06:26:02.216     
------------------------------------------------------------------------
 total:
 * wall-time:     0 d,  0 h,  0 min,  3.816 sec
 *  cpu-time:     0 d,  0 h,  0 min,  3.787 sec
 * ratio c/w:     0.992 speedup
 SCF:
 * wall-time:     0 d,  0 h,  0 min,  0.093 sec
 *  cpu-time:     0 d,  0 h,  0 min,  0.093 sec
 * ratio c/w:     1.000 speedup
 ANC optimizer:
 * wall-time:     0 d,  0 h,  0 min,  3.679 sec
 *  cpu-time:     0 d,  0 h,  0 min,  3.664 sec
 * ratio c/w:     0.996 speedup

