      -----------------------------------------------------------      
     |                   =====================                   |     
     |                           x T B                           |     
     |                   =====================                   |     
     |                         S. Grimme                         |     
     |          Mulliken Center for Theoretical Chemistry        |     
     |                    University of Bonn                     |     
      -----------------------------------------------------------      

   * xtb version 6.7.1 (edcfbbe) compiled by 'conda@5dfe00f5fb80' on 2026-06-10

   xtb is free software: you can redistribute it and/or modify it under
   the terms of the GNU Lesser General Public License as published by
   the Free Software Foundation, either version 3 of the License, or
   (at your option) any later version.
   
   xtb is distributed in the hope that it will be useful,
   but WITHOUT ANY WARRANTY; without even the implied warranty of
   MERCHANTABILITY or FITNESS FOR A PARTICULAR PURPOSE.  See the
   GNU Lesser General Public License for more details.
   
   Cite this work as:
   * C. Bannwarth, E. Caldeweyher, S. Ehlert, A. Hansen, P. Pracht,
     J. Seibert, S. Spicher, S. Grimme, WIREs Comput. Mol. Sci., 2020, 11,
     e01493. DOI: 10.1002/wcms.1493
   
   for GFN2-xTB:
   * C. Bannwarth, S. Ehlert and S. Grimme., J. Chem. Theory Comput., 2019,
     15, 1652-1671. DOI: 10.1021/acs.jctc.8b01176
   for GFN1-xTB:
   * S. Grimme, C. Bannwarth, P. Shushkov, J. Chem. Theory Comput., 2017,
     13, 1989-2009. DOI: 10.1021/acs.jctc.7b00118
   for GFN0-xTB:
   * P. Pracht, E. Caldeweyher, S. Ehlert, S. Grimme, ChemRxiv, 2019, preprint.
     DOI: 10.26434/chemrxiv.8326202.v1
   for GFN-FF:
   * S. Spicher and S. Grimme, Angew. Chem. Int. Ed., 2020, 59, 15665-15673.
     DOI: 10.1002/anie.202004239
   
   for ALPB and GBSA implicit solvation:
   * S. Ehlert, M. Stahn, S. Spicher, S. Grimme, J. Chem. Theory Comput.,
     2021, 17, 4250-4261. DOI: 10.1021/acs.jctc.1c00471
   
   for ddCOSMO and CPCM-X implicit solvation:
   * M. Stahn, S. Ehlert, S. Grimme, J. Phys. Chem. A,
     2023, XX, XXXX-XXXX. DOI: 10.1021/acs.jpca.3c04382
   
   for DFT-D4:
   * E. Caldeweyher, C. Bannwarth and S. Grimme, J. Chem. Phys., 2017,
     147, 034112. DOI: 10.1063/1.4993215
   * E. Caldeweyher, S. Ehlert, A. Hansen, H. Neugebauer, S. Spicher,
     C. Bannwarth and S. Grimme, J. Chem. Phys., 2019, 150, 154122.
     DOI: 10.1063/1.5090222
   * E. Caldeweyher, J.-M. Mewes, S. Ehlert and S. Grimme, Phys. Chem. Chem. Phys.
     2020, 22, 8499-8512. DOI: 10.1039/D0CP00502A
   
   for sTDA-xTB:
   * S. Grimme and C. Bannwarth, J. Chem. Phys., 2016, 145, 054103.
     DOI: 10.1063/1.4959605
   
   in the mass-spec context:
   * V. Asgeirsson, C. Bauer and S. Grimme, Chem. Sci., 2017, 8, 4879.
     DOI: 10.1039/c7sc00601b
   * J. Koopman and S. Grimme, ACS Omega 2019, 4, 12, 15120-15133.
     DOI: 10.1021/acsomega.9b02011
   
   for metadynamics refer to:
   * S. Grimme, J. Chem. Theory Comput., 2019, 155, 2847-2862
     DOI: 10.1021/acs.jctc.9b00143
   
   for SPH calculations refer to:
   * S. Spicher and S. Grimme, J. Chem. Theory Comput., 2021, 17, 1701-1714
     DOI: 10.1021/acs.jctc.0c01306
   
   for ONIOM refer to:
   * C. Plett, A. Katbashev, S. Ehlert, S. Grimme, M. Bursch,
     Phys. Chem. Chem. Phys., 2023, 25, 17860-17868. DOI: 10.1039/D3CP02178E
   
   for DIPRO refer to:
   * J. Kohn, N. Gildemeister, S. Grimme, D. Fazzi, A. Hansen,
     J. Chem. Phys., 2023, just accepted.
   
   for PTB refer to:
   * S. Grimme, M. Mueller, A. Hansen, J. Chem. Phys., 2023, 158, 124111.
     DOI: 10.1063/5.0137838
   
   with help from (in alphabetical order)
   P. Atkinson, C. Bannwarth, F. Bohle, G. Brandenburg, E. Caldeweyher
   M. Checinski, S. Dohm, S. Ehlert, S. Ehrlich, I. Gerasimov, C. Hölzer
   A. Katbashev, J. Kohn, J. Koopman, C. Lavigne, S. Lehtola, F. März, M. Müller,
   F. Musil, H. Neugebauer, J. Pisarek, C. Plett, P. Pracht, F. Pultar,
   J. Seibert, P. Shushkov, S. Spicher, M. Stahn, M. Steiner, T. Strunk,
   J. Stückrath, T. Rose, and J. Unsleber
   
 * started run on 2026/08/25 at 07:09:58.343     
   ID    Z sym.   atoms
    1    6 C      1-5, 11-16, 22, 24, 25, 28-32, 34, 35, 37-39, 41-44, 46-49,
                  51, 53, 55, 56, 61, 69-71, 76-78, 80, 81
    2    1 H      6-9, 17-21, 26, 27, 36, 45, 50, 52, 54, 57, 59, 60, 63, 64,
                  66-68, 73, 75, 82
    3    7 N      10, 23, 33, 40, 62, 65, 72, 74, 79
    4    8 O      58

           -------------------------------------------------
          |                Calculation Setup                |
           -------------------------------------------------

          program call               : xtb 00041.sdf --opt loose --cycles 500
          coordinate file            : 00041.sdf
          omp threads                :                     1


           -------------------------------------------------
          |                 G F N 2 - x T B                 |
           -------------------------------------------------

        Reference                      10.1021/acs.jctc.8b01176
      * Hamiltonian:
        H0-scaling (s, p, d)           1.850000    2.230000    2.230000
        zeta-weighting                 0.500000
      * Dispersion:
        s8                             2.700000
        a1                             0.520000
        a2                             5.000000
        s9                             5.000000
      * Repulsion:
        kExp                           1.500000    1.000000
        rExp                           1.000000
      * Coulomb:
        alpha                          2.000000
        third order                    shell-resolved
        anisotropic                    true
        a3                             3.000000
        a5                             4.000000
        cn-shift                       1.200000
        cn-exp                         4.000000
        max-rad                        5.000000


          ...................................................
          :                      SETUP                      :
          :.................................................:
          :  # basis functions                 247          :
          :  # atomic orbitals                 247          :
          :  # shells                          137          :
          :  # electrons                       258          :
          :  max. iterations                   250          :
          :  Hamiltonian                  GFN2-xTB          :
          :  restarted?                      false          :
          :  GBSA solvation                  false          :
          :  PC potential                    false          :
          :  electronic temp.          300.0000000     K    :
          :  accuracy                    1.0000000          :
          :  -> integral cutoff          0.2500000E+02      :
          :  -> integral neglect         0.1000000E-07      :
          :  -> SCF convergence          0.1000000E-05 Eh   :
          :  -> wf. convergence          0.1000000E-03 e    :
          :  Broyden damping             0.4000000          :
          :  net charge                          0          :
          :  unpaired electrons                  0          :
          ...................................................

 iter      E             dE          RMSdq      gap      omega  full diag
   1   -141.7757959 -0.141776E+03  0.513E+00    0.77       0.0  T
   2   -141.9155631 -0.139767E+00  0.334E+00    0.85       1.0  T
   3   -141.6801392  0.235424E+00  0.230E+00    1.29       1.0  T
   4   -141.7559609 -0.758217E-01  0.152E+00    0.86       1.0  T
   5   -141.9972440 -0.241283E+00  0.597E-01    0.98       1.0  T
   6   -142.0306834 -0.334394E-01  0.186E-01    0.85       1.0  T
   7   -142.0311111 -0.427662E-03  0.129E-01    0.82       1.0  T
   8   -142.0322143 -0.110321E-02  0.554E-02    0.84       1.0  T
   9   -142.0322693 -0.550114E-04  0.240E-02    0.83       1.0  T
  10   -142.0323104 -0.411479E-04  0.970E-03    0.83       1.1  T
  11   -142.0323139 -0.346793E-05  0.439E-03    0.83       2.5  T
  12   -142.0323150 -0.110453E-05  0.149E-03    0.83       7.4  T
  13   -142.0323150 -0.293032E-07  0.105E-03    0.83      10.5  T
  14   -142.0323151 -0.754571E-07  0.351E-04    0.83      31.5  T
  15   -142.0323151 -0.600602E-08  0.150E-04    0.83      73.7  T

   *** convergence criteria satisfied after 15 iterations ***

         #    Occupation            Energy/Eh            Energy/eV
      -------------------------------------------------------------
         1        2.0000           -0.7129309             -19.3998
       ...           ...                  ...                  ...
       123        2.0000           -0.3850843             -10.4787
       124        2.0000           -0.3797490             -10.3335
       125        2.0000           -0.3790015             -10.3132
       126        2.0000           -0.3777000             -10.2777
       127        2.0000           -0.3760758             -10.2335
       128        2.0000           -0.3513920              -9.5619
       129        2.0000           -0.3503170              -9.5326 (HOMO)
       130        0.0000           -0.3197525              -8.7009 (LUMO)
       131                         -0.3057999              -8.3212
       132                         -0.3049478              -8.2981
       133                         -0.3004397              -8.1754
       134                         -0.2843827              -7.7384
       ...                                ...                  ...
       247                          1.0496073              28.5613
      -------------------------------------------------------------
                  HL-Gap            0.0305645 Eh            0.8317 eV
             Fermi-level           -0.3349019 Eh           -9.1131 eV

 SCC (total)                   0 d,  0 h,  0 min,  0.204 sec
 SCC setup                      ...        0 min,  0.001 sec (  0.337%)
 Dispersion                     ...        0 min,  0.002 sec (  1.015%)
 classical contributions        ...        0 min,  0.000 sec (  0.127%)
 integral evaluation            ...        0 min,  0.031 sec ( 15.236%)
 iterations                     ...        0 min,  0.116 sec ( 56.962%)
 molecular gradient             ...        0 min,  0.053 sec ( 25.840%)
 printout                       ...        0 min,  0.001 sec (  0.476%)

         :::::::::::::::::::::::::::::::::::::::::::::::::::::
         ::                     SUMMARY                     ::
         :::::::::::::::::::::::::::::::::::::::::::::::::::::
         :: total energy            -140.119626999022 Eh    ::
         :: gradient norm              0.302085416565 Eh/a0 ::
         :: HOMO-LUMO gap              0.831701971916 eV    ::
         ::.................................................::
         :: SCC energy              -142.033568068928 Eh    ::
         :: -> isotropic ES            0.091728852705 Eh    ::
         :: -> anisotropic ES          0.016735043915 Eh    ::
         :: -> anisotropic XC          0.122445442476 Eh    ::
         :: -> dispersion             -0.103523563801 Eh    ::
         :: repulsion energy           1.913941069906 Eh    ::
         :: add. restraining           0.000000000000 Eh    ::
         :: total charge               0.000000000427 e     ::
         :::::::::::::::::::::::::::::::::::::::::::::::::::::

      ----------------------------------------------------------- 
     |                   =====================                   |
     |                        A N C O P T                        |
     |                   =====================                   |
     |               Approximate Normal Coordinate               |
     |                Rational Function Optimizer                |
      ----------------------------------------------------------- 
      ----------------------------------------------------------- 
     |                   =====================                   |
     |                        A N C O P T                        |
     |                   =====================                   |
     |               Approximate Normal Coordinate               |
     |                Rational Function Optimizer                |
      ----------------------------------------------------------- 

          ...................................................
          :                      SETUP                      :
          :.................................................:
          :   optimization level             loose          :
          :   max. optcycles                   500          :
          :   ANC micro-cycles                  20          :
          :   degrees of freedom               240          :
          :.................................................:
          :   RF solver                   davidson          :
          :   write xtbopt.log                true          :
          :   linear?                        false          :
          :   energy convergence         0.5000000E-04 Eh   :
          :   grad. convergence          0.4000000E-02 Eh/α :
          :   maxmium RF displ.          1.0000000          :
          :   Hlow (freq-cutoff)         0.1000000E-01      :
          :   Hmax (freq-cutoff)         5.0000000          :
          :   S6 in model hess.         20.0000000          :
          ...................................................

generating ANC from exact Hessian ...
Using Lindh-Hessian (1995)
 Shifting diagonal of input Hessian by    9.9652350706176413E-003
 Lowest  eigenvalues of input Hessian
    0.000000    0.000000    0.000000    0.000000    0.000000    0.000000
    0.010000    0.010021    0.010087    0.010114    0.010215    0.010257
    0.010394    0.010553    0.010654    0.010830    0.010924    0.011354
 Highest eigenvalues
    1.968954    1.980517    1.999617    2.050205    2.089582    2.576290


........................................................................
.............................. CYCLE    1 ..............................
........................................................................

 iter      E             dE          RMSdq      gap      omega  full diag
   1   -142.0323151 -0.142032E+03  0.738E-05    0.83       0.0  T
   2   -142.0323151  0.393811E-09  0.813E-05    0.83     135.8  T
   3   -142.0323151 -0.328612E-09  0.572E-05    0.83     193.2  T
     SCC iter.                  ...        0 min,  0.023 sec
     gradient                   ...        0 min,  0.052 sec
 * total energy  :  -140.1196270 Eh     change       -0.6674270E-09 Eh
   gradient norm :     0.3020849 Eh/α   predicted     0.0000000E+00 (-100.00%)
   displ. norm   :     0.6107806 α      lambda       -0.1310422E+00
   maximum displ.:     0.1569475 α      in ANC's #130, #47, #115, ...

........................................................................
.............................. CYCLE    2 ..............................
........................................................................

 iter      E             dE          RMSdq      gap      omega  full diag
   1   -142.2485644 -0.142249E+03  0.346E-01    0.83       0.0  T
   2   -142.2487753 -0.210899E-03  0.221E-01    0.87       1.0  T
   3   -142.2455401  0.323516E-02  0.211E-01    0.80       1.0  T
   4   -142.2451771  0.363060E-03  0.195E-01    0.87       1.0  T
   5   -142.2496591 -0.448200E-02  0.301E-02    0.86       1.0  T
   6   -142.2497685 -0.109423E-03  0.943E-03    0.86       1.2  T
   7   -142.2497727 -0.414844E-05  0.453E-03    0.86       2.4  T
   8   -142.2497736 -0.894813E-06  0.188E-03    0.86       5.9  T
   9   -142.2497737 -0.141792E-06  0.638E-04    0.86      17.3  T
  10   -142.2497737 -0.160125E-07  0.344E-04    0.86      32.1  T
     SCC iter.                  ...        0 min,  0.069 sec
     gradient                   ...        0 min,  0.057 sec
 * total energy  :  -140.2246121 Eh     change       -0.1049851E+00 Eh
   gradient norm :     0.1624298 Eh/α   predicted    -0.9006355E-01 ( -14.21%)
   displ. norm   :     0.7005825 α      lambda       -0.8430870E-01
   maximum displ.:     0.1672167 α      in ANC's #47, #21, #38, ...

........................................................................
.............................. CYCLE    3 ..............................
........................................................................

 iter      E             dE          RMSdq      gap      omega  full diag
   1   -142.4280092 -0.142428E+03  0.344E-01    0.82       0.0  T
   2   -142.4284885 -0.479269E-03  0.218E-01    0.90       1.0  T
   3   -142.4280651  0.423413E-03  0.148E-01    0.82       1.0  T
   4   -142.4293082 -0.124316E-02  0.444E-02    0.88       1.0  T
   5   -142.4294802 -0.171951E-03  0.284E-02    0.88       1.0  T
   6   -142.4295635 -0.832945E-04  0.133E-02    0.87       1.0  T
   7   -142.4295773 -0.138223E-04  0.382E-03    0.87       2.9  T
   8   -142.4295778 -0.522696E-06  0.167E-03    0.87       6.6  T
   9   -142.4295779 -0.115349E-06  0.570E-04    0.87      19.4  T
  10   -142.4295779 -0.119707E-07  0.298E-04    0.87      37.1  T
     SCC iter.                  ...        0 min,  0.076 sec
     gradient                   ...        0 min,  0.053 sec
 * total energy  :  -140.2863662 Eh     change       -0.6175410E-01 Eh
   gradient norm :     0.0749880 Eh/α   predicted    -0.6284440E-01 (   1.77%)
   displ. norm   :     0.7698904 α      lambda       -0.4323763E-01
   maximum displ.:     0.2649761 α      in ANC's #21, #47, #25, ...

........................................................................
.............................. CYCLE    4 ..............................
........................................................................

 iter      E             dE          RMSdq      gap      omega  full diag
   1   -142.5342791 -0.142534E+03  0.243E-01    0.91       0.0  T
   2   -142.5344215 -0.142318E-03  0.148E-01    0.94       1.0  T
   3   -142.5334886  0.932875E-03  0.100E-01    0.89       1.0  T
   4   -142.5341366 -0.647978E-03  0.645E-02    0.92       1.0  T
   5   -142.5346577 -0.521110E-03  0.163E-02    0.93       1.0  T
   6   -142.5346826 -0.249344E-04  0.485E-03    0.92       2.3  T
   7   -142.5346834 -0.762636E-06  0.216E-03    0.92       5.1  T
   8   -142.5346835 -0.171107E-06  0.904E-04    0.92      12.2  T
   9   -142.5346836 -0.342468E-07  0.326E-04    0.92      33.9  T
     SCC iter.                  ...        0 min,  0.060 sec
     gradient                   ...        0 min,  0.065 sec
 * total energy  :  -140.3227421 Eh     change       -0.3637594E-01 Eh
   gradient norm :     0.0579375 Eh/α   predicted    -0.3443300E-01 (  -5.34%)
   displ. norm   :     0.8228537 α      lambda       -0.3326878E-01
   maximum displ.:     0.3223490 α      in ANC's #21, #25, #24, ...

........................................................................
.............................. CYCLE    5 ..............................
........................................................................

 iter      E             dE          RMSdq      gap      omega  full diag
   1   -142.6087272 -0.142609E+03  0.220E-01    0.99       0.0  T
   2   -142.6088120 -0.847796E-04  0.131E-01    0.99       1.0  T
   3   -142.6082266  0.585393E-03  0.825E-02    0.99       1.0  T
   4   -142.6086558 -0.429247E-03  0.462E-02    0.99       1.0  T
   5   -142.6088912 -0.235368E-03  0.931E-03    0.99       1.2  T
   6   -142.6088984 -0.717414E-05  0.364E-03    0.99       3.0  T
   7   -142.6088990 -0.642528E-06  0.182E-03    0.99       6.1  T
   8   -142.6088993 -0.225362E-06  0.605E-04    0.99      18.2  T
   9   -142.6088993 -0.206656E-07  0.280E-04    0.99      39.5  T
     SCC iter.                  ...        0 min,  0.082 sec
     gradient                   ...        0 min,  0.055 sec
 * total energy  :  -140.3509358 Eh     change       -0.2819371E-01 Eh
   gradient norm :     0.0396919 Eh/α   predicted    -0.2789734E-01 (  -1.05%)
   displ. norm   :     0.8451158 α      lambda       -0.2540046E-01
   maximum displ.:     0.3738199 α      in ANC's #21, #25, #16, ...

........................................................................
.............................. CYCLE    6 ..............................
........................................................................

 iter      E             dE          RMSdq      gap      omega  full diag
   1   -142.6637588 -0.142664E+03  0.209E-01    1.05       0.0  T
   2   -142.6638083 -0.495152E-04  0.127E-01    1.04       1.0  T
   3   -142.6628837  0.924665E-03  0.981E-02    1.05       1.0  T
   4   -142.6636442 -0.760568E-03  0.497E-02    1.05       1.0  T
   5   -142.6639193 -0.275045E-03  0.702E-03    1.04       1.6  T
   6   -142.6639221 -0.286222E-05  0.322E-03    1.04       3.4  T
   7   -142.6639224 -0.273870E-06  0.154E-03    1.04       7.2  T
   8   -142.6639225 -0.109922E-06  0.487E-04    1.04      22.7  T
   9   -142.6639225 -0.119017E-07  0.244E-04    1.04      45.3  T
     SCC iter.                  ...        0 min,  0.060 sec
     gradient                   ...        0 min,  0.054 sec
 * total energy  :  -140.3717476 Eh     change       -0.2081180E-01 Eh
   gradient norm :     0.0319558 Eh/α   predicted    -0.2177100E-01 (   4.61%)
   displ. norm   :     0.8431251 α      lambda       -0.1992962E-01
   maximum displ.:     0.3968920 α      in ANC's #21, #16, #19, ...

........................................................................
.............................. CYCLE    7 ..............................
........................................................................

 iter      E             dE          RMSdq      gap      omega  full diag
   1   -142.7094377 -0.142709E+03  0.196E-01    1.08       0.0  T
   2   -142.7094718 -0.340715E-04  0.119E-01    1.08       1.0  T
   3   -142.7085365  0.935260E-03  0.917E-02    1.08       1.0  T
   4   -142.7093874 -0.850858E-03  0.394E-02    1.08       1.0  T
   5   -142.7095521 -0.164773E-03  0.645E-03    1.08       1.7  T
   6   -142.7095546 -0.243484E-05  0.288E-03    1.08       3.8  T
   7   -142.7095547 -0.110831E-06  0.147E-03    1.08       7.5  T
   8   -142.7095548 -0.134600E-06  0.446E-04    1.08      24.8  T
   9   -142.7095548 -0.127309E-07  0.218E-04    1.08      50.7  T
     SCC iter.                  ...        0 min,  0.064 sec
     gradient                   ...        0 min,  0.057 sec
 * total energy  :  -140.3878351 Eh     change       -0.1608744E-01 Eh
   gradient norm :     0.0269033 Eh/α   predicted    -0.1704840E-01 (   5.97%)
   displ. norm   :     0.8324994 α      lambda       -0.1464246E-01
   maximum displ.:     0.4118900 α      in ANC's #21, #16, #19, ...

........................................................................
.............................. CYCLE    8 ..............................
........................................................................

 iter      E             dE          RMSdq      gap      omega  full diag
   1   -142.7453994 -0.142745E+03  0.147E-01    1.10       0.0  T
   2   -142.7454257 -0.262968E-04  0.896E-02    1.09       1.0  T
   3   -142.7448591  0.566518E-03  0.695E-02    1.10       1.0  T
   4   -142.7453697 -0.510594E-03  0.320E-02    1.10       1.0  T
   5   -142.7454776 -0.107851E-03  0.574E-03    1.09       1.9  T
   6   -142.7454801 -0.254109E-05  0.209E-03    1.10       5.3  T
   7   -142.7454801 -0.250114E-07  0.120E-03    1.10       9.2  T
   8   -142.7454802 -0.958264E-07  0.315E-04    1.10      35.1  T
   9   -142.7454802 -0.504892E-08  0.160E-04    1.10      69.2  T
     SCC iter.                  ...        0 min,  0.070 sec
     gradient                   ...        0 min,  0.057 sec
 * total energy  :  -140.4006448 Eh     change       -0.1280977E-01 Eh
   gradient norm :     0.0227566 Eh/α   predicted    -0.1239525E-01 (  -3.24%)
   displ. norm   :     0.8577978 α      lambda       -0.1201871E-01
   maximum displ.:     0.4252377 α      in ANC's #21, #16, #19, ...

........................................................................
.............................. CYCLE    9 ..............................
........................................................................

 iter      E             dE          RMSdq      gap      omega  full diag
   1   -142.7745943 -0.142775E+03  0.145E-01    1.10       0.0  T
   2   -142.7746475 -0.532037E-04  0.867E-02    1.09       1.0  T
   3   -142.7744052  0.242354E-03  0.497E-02    1.10       1.0  T
   4   -142.7745922 -0.187072E-03  0.282E-02    1.10       1.0  T
   5   -142.7746822 -0.899330E-04  0.797E-03    1.10       1.4  T
   6   -142.7746880 -0.586858E-05  0.214E-03    1.10       5.2  T
   7   -142.7746881 -0.442785E-07  0.121E-03    1.10       9.1  T
   8   -142.7746882 -0.986665E-07  0.308E-04    1.10      35.9  T
   9   -142.7746882 -0.489197E-08  0.149E-04    1.10      74.2  T
     SCC iter.                  ...        0 min,  0.062 sec
     gradient                   ...        0 min,  0.053 sec
 * total energy  :  -140.4112381 Eh     change       -0.1059321E-01 Eh
   gradient norm :     0.0184555 Eh/α   predicted    -0.1043115E-01 (  -1.53%)
   displ. norm   :     0.8793209 α      lambda       -0.1029366E-01
   maximum displ.:     0.3953795 α      in ANC's #21, #16, #19, ...

........................................................................
.............................. CYCLE   10 ..............................
........................................................................

 iter      E             dE          RMSdq      gap      omega  full diag
   1   -142.8046514 -0.142805E+03  0.204E-01    1.09       0.0  T
   2   -142.8047295 -0.781197E-04  0.117E-01    1.09       1.0  T
   3   -142.8045645  0.165026E-03  0.453E-02    1.09       1.0  T
   4   -142.8047288 -0.164254E-03  0.182E-02    1.09       1.0  T
   5   -142.8047593 -0.305148E-04  0.943E-03    1.09       1.2  T
   6   -142.8047681 -0.883850E-05  0.284E-03    1.09       3.9  T
   7   -142.8047682 -0.116151E-06  0.130E-03    1.09       8.5  T
   8   -142.8047684 -0.150199E-06  0.308E-04    1.09      35.9  T
   9   -142.8047684 -0.355473E-08  0.173E-04    1.09      64.0  T
     SCC iter.                  ...        0 min,  0.062 sec
     gradient                   ...        0 min,  0.053 sec
 * total energy  :  -140.4193328 Eh     change       -0.8094765E-02 Eh
   gradient norm :     0.0274328 Eh/α   predicted    -0.9126402E-02 (  12.74%)
   displ. norm   :     0.8380071 α      lambda       -0.8826973E-02
   maximum displ.:     0.3734579 α      in ANC's #21, #10, #16, ...

........................................................................
.............................. CYCLE   11 ..............................
........................................................................

 iter      E             dE          RMSdq      gap      omega  full diag
   1   -142.8224048 -0.142822E+03  0.221E-01    1.08       0.0  T
   2   -142.8224755 -0.706540E-04  0.125E-01    1.08       1.0  T
   3   -142.8223645  0.110991E-03  0.397E-02    1.08       1.0  T
   4   -142.8224940 -0.129534E-03  0.119E-02    1.08       1.0  T
   5   -142.8224990 -0.495090E-05  0.893E-03    1.08       1.2  T
   6   -142.8225063 -0.734576E-05  0.321E-03    1.08       3.4  T
   7   -142.8225068 -0.470144E-06  0.163E-03    1.08       6.8  T
   8   -142.8225070 -0.188518E-06  0.325E-04    1.08      34.0  T
   9   -142.8225070 -0.435756E-08  0.187E-04    1.08      59.2  T
     SCC iter.                  ...        0 min,  0.064 sec
     gradient                   ...        0 min,  0.055 sec
 * total energy  :  -140.4260915 Eh     change       -0.6758687E-02 Eh
   gradient norm :     0.0185668 Eh/α   predicted    -0.7512881E-02 (  11.16%)
   displ. norm   :     0.7923400 α      lambda       -0.5915722E-02
   maximum displ.:     0.3124381 α      in ANC's #21, #16, #10, ...

........................................................................
.............................. CYCLE   12 ..............................
........................................................................

 iter      E             dE          RMSdq      gap      omega  full diag
   1   -142.8452201 -0.142845E+03  0.127E-01    1.08       0.0  T
   2   -142.8452487 -0.285926E-04  0.747E-02    1.08       1.0  T
   3   -142.8451756  0.731882E-04  0.291E-02    1.08       1.0  T
   4   -142.8452417 -0.661020E-04  0.133E-02    1.08       1.0  T
   5   -142.8452586 -0.169508E-04  0.606E-03    1.08       1.8  T
   6   -142.8452622 -0.361723E-05  0.159E-03    1.08       7.0  T
   7   -142.8452622 -0.173180E-07  0.769E-04    1.08      14.4  T
   8   -142.8452623 -0.425634E-07  0.189E-04    1.08      58.4  T
     SCC iter.                  ...        0 min,  0.055 sec
     gradient                   ...        0 min,  0.055 sec
 * total energy  :  -140.4308782 Eh     change       -0.4786683E-02 Eh
   gradient norm :     0.0181022 Eh/α   predicted    -0.4814813E-02 (   0.59%)
   displ. norm   :     0.7962003 α      lambda       -0.4500978E-02
   maximum displ.:     0.3186454 α      in ANC's #10, #15, #16, ...

........................................................................
.............................. CYCLE   13 ..............................
........................................................................

 iter      E             dE          RMSdq      gap      omega  full diag
   1   -142.8590761 -0.142859E+03  0.111E-01    1.08       0.0  T
   2   -142.8590884 -0.122559E-04  0.661E-02    1.08       1.0  T
   3   -142.8590289  0.595192E-04  0.248E-02    1.08       1.0  T
   4   -142.8590891 -0.602132E-04  0.831E-03    1.08       1.3  T
   5   -142.8590938 -0.469901E-05  0.459E-03    1.08       2.4  T
   6   -142.8590959 -0.208489E-05  0.176E-03    1.08       6.3  T
   7   -142.8590961 -0.178012E-06  0.724E-04    1.08      15.2  T
   8   -142.8590961 -0.231140E-07  0.167E-04    1.08      66.1  T
     SCC iter.                  ...        0 min,  0.058 sec
     gradient                   ...        0 min,  0.054 sec
 * total energy  :  -140.4345152 Eh     change       -0.3637050E-02 Eh
   gradient norm :     0.0124188 Eh/α   predicted    -0.3677153E-02 (   1.10%)
   displ. norm   :     0.7665919 α      lambda       -0.3357905E-02
   maximum displ.:     0.3430682 α      in ANC's #10, #15, #11, ...

........................................................................
.............................. CYCLE   14 ..............................
........................................................................

 iter      E             dE          RMSdq      gap      omega  full diag
   1   -142.8748328 -0.142875E+03  0.112E-01    1.08       0.0  T
   2   -142.8748453 -0.125546E-04  0.662E-02    1.08       1.0  T
   3   -142.8747273  0.118025E-03  0.344E-02    1.08       1.0  T
   4   -142.8748369 -0.109617E-03  0.135E-02    1.08       1.0  T
   5   -142.8748568 -0.199412E-04  0.429E-03    1.08       2.6  T
   6   -142.8748583 -0.143404E-05  0.163E-03    1.08       6.8  T
   7   -142.8748583 -0.659149E-07  0.663E-04    1.08      16.7  T
   8   -142.8748584 -0.197906E-07  0.181E-04    1.08      61.2  T
     SCC iter.                  ...        0 min,  0.057 sec
     gradient                   ...        0 min,  0.056 sec
 * total energy  :  -140.4372126 Eh     change       -0.2697365E-02 Eh
   gradient norm :     0.0148959 Eh/α   predicted    -0.2665614E-02 (  -1.18%)
   displ. norm   :     0.7496042 α      lambda       -0.2558704E-02
   maximum displ.:     0.3649985 α      in ANC's #10, #15, #11, ...

........................................................................
.............................. CYCLE   15 ..............................
........................................................................

 iter      E             dE          RMSdq      gap      omega  full diag
   1   -142.8800188 -0.142880E+03  0.100E-01    1.08       0.0  T
   2   -142.8800282 -0.937986E-05  0.593E-02    1.08       1.0  T
   3   -142.8799710  0.572182E-04  0.270E-02    1.08       1.0  T
   4   -142.8800332 -0.622093E-04  0.619E-03    1.08       1.8  T
   5   -142.8800351 -0.191135E-05  0.373E-03    1.08       3.0  T
   6   -142.8800362 -0.115849E-05  0.186E-03    1.08       6.0  T
   7   -142.8800365 -0.279942E-06  0.538E-04    1.08      20.5  T
   8   -142.8800365 -0.107936E-07  0.171E-04    1.08      64.5  T
     SCC iter.                  ...        0 min,  0.060 sec
     gradient                   ...        0 min,  0.056 sec
 * total energy  :  -140.4392555 Eh     change       -0.2042905E-02 Eh
   gradient norm :     0.0083013 Eh/α   predicted    -0.1998233E-02 (  -2.19%)
   displ. norm   :     0.7265723 α      lambda       -0.1967395E-02
   maximum displ.:     0.3729357 α      in ANC's #10, #15, #9, ...

........................................................................
.............................. CYCLE   16 ..............................
........................................................................

 iter      E             dE          RMSdq      gap      omega  full diag
   1   -142.8859606 -0.142886E+03  0.105E-01    1.09       0.0  T
   2   -142.8859708 -0.102553E-04  0.610E-02    1.09       1.0  T
   3   -142.8859212  0.496433E-04  0.256E-02    1.08       1.0  T
   4   -142.8859778 -0.566572E-04  0.453E-03    1.09       2.4  T
   5   -142.8859789 -0.106219E-05  0.219E-03    1.09       5.0  T
   6   -142.8859788  0.100237E-06  0.183E-03    1.09       6.0  T
   7   -142.8859791 -0.297703E-06  0.763E-04    1.09      14.5  T
   8   -142.8859792 -0.543476E-07  0.167E-04    1.09      66.2  T
     SCC iter.                  ...        0 min,  0.059 sec
     gradient                   ...        0 min,  0.052 sec
 * total energy  :  -140.4408435 Eh     change       -0.1587951E-02 Eh
   gradient norm :     0.0070706 Eh/α   predicted    -0.1503000E-02 (  -5.35%)
   displ. norm   :     0.7065870 α      lambda       -0.1513549E-02
   maximum displ.:     0.3789222 α      in ANC's #10, #5, #15, ...

........................................................................
.............................. CYCLE   17 ..............................
........................................................................

 iter      E             dE          RMSdq      gap      omega  full diag
   1   -142.8869945 -0.142887E+03  0.974E-02    1.09       0.0  T
   2   -142.8870018 -0.724663E-05  0.569E-02    1.10       1.0  T
   3   -142.8869313  0.704889E-04  0.291E-02    1.09       1.0  T
   4   -142.8870009 -0.695650E-04  0.931E-03    1.09       1.2  T
   5   -142.8870089 -0.807060E-05  0.344E-03    1.09       3.2  T
   6   -142.8870100 -0.110892E-05  0.144E-03    1.09       7.6  T
   7   -142.8870102 -0.115691E-06  0.463E-04    1.09      23.9  T
   8   -142.8870102 -0.783845E-08  0.156E-04    1.09      70.8  T
     SCC iter.                  ...        0 min,  0.059 sec
     gradient                   ...        0 min,  0.054 sec
 * total energy  :  -140.4420840 Eh     change       -0.1240537E-02 Eh
   gradient norm :     0.0079855 Eh/α   predicted    -0.1134607E-02 (  -8.54%)
   displ. norm   :     0.6745798 α      lambda       -0.1221195E-02
   maximum displ.:     0.3548451 α      in ANC's #10, #5, #9, ...

........................................................................
.............................. CYCLE   18 ..............................
........................................................................

 iter      E             dE          RMSdq      gap      omega  full diag
   1   -142.8884256 -0.142888E+03  0.955E-02    1.10       0.0  T
   2   -142.8884332 -0.765357E-05  0.558E-02    1.10       1.0  T
   3   -142.8883593  0.739255E-04  0.286E-02    1.10       1.0  T
   4   -142.8884329 -0.735389E-04  0.967E-03    1.10       1.1  T
   5   -142.8884417 -0.883190E-05  0.317E-03    1.10       3.5  T
   6   -142.8884427 -0.955454E-06  0.137E-03    1.10       8.0  T
   7   -142.8884428 -0.116367E-06  0.458E-04    1.10      24.1  T
   8   -142.8884428 -0.108655E-07  0.141E-04    1.10      78.5  T
     SCC iter.                  ...        0 min,  0.065 sec
     gradient                   ...        0 min,  0.059 sec
 * total energy  :  -140.4430807 Eh     change       -0.9967328E-03 Eh
   gradient norm :     0.0093568 Eh/α   predicted    -0.8884568E-03 ( -10.86%)
   displ. norm   :     0.6569193 α      lambda       -0.1055922E-02
   maximum displ.:     0.3381722 α      in ANC's #10, #5, #9, ...

........................................................................
.............................. CYCLE   19 ..............................
........................................................................

 iter      E             dE          RMSdq      gap      omega  full diag
   1   -142.8884399 -0.142888E+03  0.963E-02    1.11       0.0  T
   2   -142.8884465 -0.662808E-05  0.566E-02    1.11       1.0  T
   3   -142.8883504  0.961236E-04  0.316E-02    1.11       1.0  T
   4   -142.8884463 -0.959417E-04  0.104E-02    1.11       1.1  T
   5   -142.8884574 -0.110454E-04  0.301E-03    1.11       3.7  T
   6   -142.8884583 -0.886579E-06  0.129E-03    1.11       8.6  T
   7   -142.8884584 -0.913605E-07  0.436E-04    1.11      25.3  T
   8   -142.8884584 -0.124818E-07  0.124E-04    1.11      89.1  T
     SCC iter.                  ...        0 min,  0.091 sec
     gradient                   ...        0 min,  0.071 sec
 * total energy  :  -140.4439374 Eh     change       -0.8567190E-03 Eh
   gradient norm :     0.0094884 Eh/α   predicted    -0.7557992E-03 ( -11.78%)
   displ. norm   :     0.6375013 α      lambda       -0.9481254E-03
   maximum displ.:     0.3149780 α      in ANC's #10, #5, #4, ...

........................................................................
.............................. CYCLE   20 ..............................
........................................................................

 iter      E             dE          RMSdq      gap      omega  full diag
   1   -142.8913271 -0.142891E+03  0.988E-02    1.11       0.0  T
   2   -142.8913366 -0.950156E-05  0.578E-02    1.12       1.0  T
   3   -142.8912398  0.967726E-04  0.321E-02    1.11       1.0  T
   4   -142.8913480 -0.108166E-03  0.766E-03    1.12       1.4  T
   5   -142.8913526 -0.457211E-05  0.331E-03    1.12       3.3  T
   6   -142.8913536 -0.100359E-05  0.151E-03    1.12       7.3  T
   7   -142.8913537 -0.157917E-06  0.493E-04    1.12      22.4  T
   8   -142.8913537 -0.192244E-07  0.117E-04    1.12      94.4  T
     SCC iter.                  ...        0 min,  0.054 sec
     gradient                   ...        0 min,  0.063 sec
 * total energy  :  -140.4447009 Eh     change       -0.7634059E-03 Eh
   gradient norm :     0.0076451 Eh/α   predicted    -0.6667292E-03 ( -12.66%)
   displ. norm   :     0.6265126 α      lambda       -0.8631309E-03
   maximum displ.:     0.2965251 α      in ANC's #10, #5, #4, ...
 * RMSD in coord.:     1.2808644 α      energy gain  -0.3250739E+00 Eh

generating ANC from exact Hessian ...
Using Lindh-Hessian (1995)
 Shifting diagonal of input Hessian by    9.9518529428439372E-003
 Lowest  eigenvalues of input Hessian
    0.000000    0.000000    0.000000    0.000000    0.000000    0.000000
    0.010000    0.010028    0.010102    0.010197    0.010294    0.010448
    0.010608    0.010838    0.010881    0.011049    0.011473    0.011983
 Highest eigenvalues
    2.226168    2.280668    2.286143    2.306020    2.307480    2.624224


........................................................................
.............................. CYCLE   21 ..............................
........................................................................

 iter      E             dE          RMSdq      gap      omega  full diag
   1   -142.8932235 -0.142893E+03  0.116E-01    1.12       0.0  T
   2   -142.8932332 -0.968032E-05  0.676E-02    1.13       1.0  T
   3   -142.8931149  0.118266E-03  0.351E-02    1.12       1.0  T
   4   -142.8932318 -0.116832E-03  0.120E-02    1.13       1.0  T
   5   -142.8932466 -0.147995E-04  0.331E-03    1.13       3.3  T
   6   -142.8932474 -0.836437E-06  0.167E-03    1.13       6.6  T
   7   -142.8932476 -0.195619E-06  0.487E-04    1.13      22.7  T
   8   -142.8932476 -0.179717E-07  0.144E-04    1.13      76.6  T
     SCC iter.                  ...        0 min,  0.061 sec
     gradient                   ...        0 min,  0.054 sec
 * total energy  :  -140.4453672 Eh     change       -0.6663806E-03 Eh
   gradient norm :     0.0088706 Eh/α   predicted     0.0000000E+00 (-100.00%)
   displ. norm   :     0.1217860 α      lambda       -0.3261945E-03
   maximum displ.:     0.0486728 α      in ANC's #5, #9, #20, ...

........................................................................
.............................. CYCLE   22 ..............................
........................................................................

 iter      E             dE          RMSdq      gap      omega  full diag
   1   -142.8947309 -0.142895E+03  0.493E-02    1.13       0.0  T
   2   -142.8947331 -0.228592E-05  0.281E-02    1.13       1.0  T
   3   -142.8947177  0.154489E-04  0.140E-02    1.13       1.0  T
   4   -142.8947335 -0.157992E-04  0.408E-03    1.13       2.7  T
   5   -142.8947353 -0.176006E-05  0.151E-03    1.13       7.3  T
   6   -142.8947354 -0.132814E-06  0.672E-04    1.13      16.4  T
   7   -142.8947354 -0.210407E-07  0.212E-04    1.13      52.1  T
     SCC iter.                  ...        0 min,  0.048 sec
     gradient                   ...        0 min,  0.059 sec
 * total energy  :  -140.4456056 Eh     change       -0.2383240E-03 Eh
   gradient norm :     0.0046433 Eh/α   predicted    -0.1655173E-03 ( -30.55%)
   displ. norm   :     0.4235367 α      lambda       -0.8307148E-03
   maximum displ.:     0.1940902 α      in ANC's #11, #5, #9, ...

........................................................................
.............................. CYCLE   23 ..............................
........................................................................

 iter      E             dE          RMSdq      gap      omega  full diag
   1   -142.8961159 -0.142896E+03  0.169E-01    1.14       0.0  T
   2   -142.8961399 -0.240565E-04  0.950E-02    1.14       1.0  T
   3   -142.8960775  0.624166E-04  0.262E-02    1.14       1.0  T
   4   -142.8961399 -0.623894E-04  0.108E-02    1.14       1.0  T
   5   -142.8961515 -0.115686E-04  0.433E-03    1.14       2.5  T
   6   -142.8961525 -0.107505E-05  0.186E-03    1.14       5.9  T
   7   -142.8961527 -0.171783E-06  0.558E-04    1.14      19.8  T
   8   -142.8961527 -0.218810E-07  0.163E-04    1.14      67.6  T
     SCC iter.                  ...        0 min,  0.054 sec
     gradient                   ...        0 min,  0.065 sec
 * total energy  :  -140.4459250 Eh     change       -0.3194234E-03 Eh
   gradient norm :     0.0135421 Eh/α   predicted    -0.4898683E-03 (  53.36%)
   displ. norm   :     0.2727545 α      lambda       -0.5956122E-03
   maximum displ.:     0.1192614 α      in ANC's #5, #9, #11, ...

........................................................................
.............................. CYCLE   24 ..............................
........................................................................

 iter      E             dE          RMSdq      gap      omega  full diag
   1   -142.8954983 -0.142895E+03  0.947E-02    1.14       0.0  T
   2   -142.8955046 -0.624194E-05  0.541E-02    1.14       1.0  T
   3   -142.8954625  0.420614E-04  0.215E-02    1.14       1.0  T
   4   -142.8955048 -0.422486E-04  0.686E-03    1.14       1.6  T
   5   -142.8955096 -0.479256E-05  0.236E-03    1.14       4.7  T
   6   -142.8955097 -0.154860E-06  0.121E-03    1.14       9.1  T
   7   -142.8955098 -0.108480E-06  0.255E-04    1.14      43.3  T
   8   -142.8955098 -0.388272E-08  0.100E-04    1.14     110.3  T
     SCC iter.                  ...        0 min,  0.059 sec
     gradient                   ...        0 min,  0.052 sec
 * total energy  :  -140.4463505 Eh     change       -0.4255352E-03 Eh
   gradient norm :     0.0102984 Eh/α   predicted    -0.3199627E-03 ( -24.81%)
   displ. norm   :     0.3750178 α      lambda       -0.4959368E-03
   maximum displ.:     0.1749648 α      in ANC's #5, #11, #9, ...

........................................................................
.............................. CYCLE   25 ..............................
........................................................................

 iter      E             dE          RMSdq      gap      omega  full diag
   1   -142.8947174 -0.142895E+03  0.990E-02    1.15       0.0  T
   2   -142.8947222 -0.475375E-05  0.573E-02    1.15       1.0  T
   3   -142.8946508  0.713910E-04  0.257E-02    1.15       1.0  T
   4   -142.8947217 -0.709391E-04  0.739E-03    1.15       1.5  T
   5   -142.8947274 -0.571562E-05  0.226E-03    1.15       4.9  T
   6   -142.8947276 -0.130812E-06  0.108E-03    1.15      10.3  T
   7   -142.8947277 -0.882198E-07  0.324E-04    1.15      34.0  T
   8   -142.8947277 -0.718015E-08  0.125E-04    1.15      88.2  T
     SCC iter.                  ...        0 min,  0.055 sec
     gradient                   ...        0 min,  0.055 sec
 * total energy  :  -140.4467105 Eh     change       -0.3599853E-03 Eh
   gradient norm :     0.0076931 Eh/α   predicted    -0.2828435E-03 ( -21.43%)
   displ. norm   :     0.4638214 α      lambda       -0.4732187E-03
   maximum displ.:     0.2222443 α      in ANC's #5, #9, #11, ...

........................................................................
.............................. CYCLE   26 ..............................
........................................................................

 iter      E             dE          RMSdq      gap      omega  full diag
   1   -142.8950734 -0.142895E+03  0.108E-01    1.16       0.0  T
   2   -142.8950781 -0.471411E-05  0.628E-02    1.16       1.0  T
   3   -142.8949970  0.811191E-04  0.275E-02    1.16       1.0  T
   4   -142.8950769 -0.798674E-04  0.807E-03    1.16       1.4  T
   5   -142.8950839 -0.699111E-05  0.234E-03    1.16       4.7  T
   6   -142.8950841 -0.176507E-06  0.117E-03    1.16       9.4  T
   7   -142.8950842 -0.115062E-06  0.374E-04    1.16      29.5  T
   8   -142.8950842 -0.118140E-07  0.146E-04    1.16      75.5  T
     SCC iter.                  ...        0 min,  0.054 sec
     gradient                   ...        0 min,  0.055 sec
 * total energy  :  -140.4470457 Eh     change       -0.3352439E-03 Eh
   gradient norm :     0.0078574 Eh/α   predicted    -0.2875154E-03 ( -14.24%)
   displ. norm   :     0.4614914 α      lambda       -0.4466658E-03
   maximum displ.:     0.2281481 α      in ANC's #5, #9, #11, ...

........................................................................
.............................. CYCLE   27 ..............................
........................................................................

 iter      E             dE          RMSdq      gap      omega  full diag
   1   -142.8962663 -0.142896E+03  0.959E-02    1.17       0.0  T
   2   -142.8962705 -0.415500E-05  0.560E-02    1.17       1.0  T
   3   -142.8962110  0.595182E-04  0.237E-02    1.17       1.0  T
   4   -142.8962693 -0.583677E-04  0.726E-03    1.17       1.5  T
   5   -142.8962749 -0.557100E-05  0.210E-03    1.17       5.2  T
   6   -142.8962751 -0.212814E-06  0.105E-03    1.17      10.5  T
   7   -142.8962752 -0.966040E-07  0.314E-04    1.17      35.2  T
   8   -142.8962752 -0.941316E-08  0.107E-04    1.17     102.9  T
     SCC iter.                  ...        0 min,  0.062 sec
     gradient                   ...        0 min,  0.055 sec
 * total energy  :  -140.4474035 Eh     change       -0.3577827E-03 Eh
   gradient norm :     0.0081390 Eh/α   predicted    -0.2708984E-03 ( -24.28%)
   displ. norm   :     0.5314250 α      lambda       -0.5099129E-03
   maximum displ.:     0.2708518 α      in ANC's #5, #9, #11, ...

........................................................................
.............................. CYCLE   28 ..............................
........................................................................

 iter      E             dE          RMSdq      gap      omega  full diag
   1   -142.8974290 -0.142897E+03  0.104E-01    1.17       0.0  T
   2   -142.8974335 -0.450259E-05  0.611E-02    1.18       1.0  T
   3   -142.8973688  0.647086E-04  0.248E-02    1.17       1.0  T
   4   -142.8974325 -0.636936E-04  0.753E-03    1.17       1.5  T
   5   -142.8974385 -0.592742E-05  0.215E-03    1.17       5.1  T
   6   -142.8974387 -0.229921E-06  0.114E-03    1.17       9.7  T
   7   -142.8974388 -0.114852E-06  0.325E-04    1.17      34.0  T
   8   -142.8974388 -0.814418E-08  0.120E-04    1.17      92.1  T
     SCC iter.                  ...        0 min,  0.067 sec
     gradient                   ...        0 min,  0.056 sec
 * total energy  :  -140.4478313 Eh     change       -0.4278202E-03 Eh
   gradient norm :     0.0078579 Eh/α   predicted    -0.3269612E-03 ( -23.58%)
   displ. norm   :     0.6185917 α      lambda       -0.5507927E-03
   maximum displ.:     0.3185919 α      in ANC's #5, #9, #6, ...

........................................................................
.............................. CYCLE   29 ..............................
........................................................................

 iter      E             dE          RMSdq      gap      omega  full diag
   1   -142.8979232 -0.142898E+03  0.126E-01    1.18       0.0  T
   2   -142.8979304 -0.719660E-05  0.738E-02    1.18       1.0  T
   3   -142.8978576  0.728501E-04  0.266E-02    1.18       1.0  T
   4   -142.8979293 -0.717306E-04  0.855E-03    1.18       1.3  T
   5   -142.8979366 -0.730311E-05  0.262E-03    1.18       4.2  T
   6   -142.8979369 -0.274803E-06  0.138E-03    1.18       8.0  T
   7   -142.8979371 -0.195325E-06  0.378E-04    1.18      29.2  T
   8   -142.8979371 -0.116222E-07  0.146E-04    1.18      75.6  T
     SCC iter.                  ...        0 min,  0.054 sec
     gradient                   ...        0 min,  0.053 sec
 * total energy  :  -140.4483048 Eh     change       -0.4734345E-03 Eh
   gradient norm :     0.0092641 Eh/α   predicted    -0.3807796E-03 ( -19.57%)
   displ. norm   :     0.6767714 α      lambda       -0.5970760E-03
   maximum displ.:     0.3502836 α      in ANC's #5, #9, #6, ...

........................................................................
.............................. CYCLE   30 ..............................
........................................................................

 iter      E             dE          RMSdq      gap      omega  full diag
   1   -142.8963797 -0.142896E+03  0.147E-01    1.19       0.0  T
   2   -142.8963905 -0.108132E-04  0.856E-02    1.19       1.0  T
   3   -142.8963241  0.664306E-04  0.261E-02    1.19       1.0  T
   4   -142.8963907 -0.666063E-04  0.885E-03    1.19       1.2  T
   5   -142.8963978 -0.714957E-05  0.329E-03    1.19       3.4  T
   6   -142.8963983 -0.456850E-06  0.162E-03    1.19       6.8  T
   7   -142.8963986 -0.302213E-06  0.416E-04    1.19      26.5  T
   8   -142.8963986 -0.127257E-07  0.176E-04    1.19      62.6  T
     SCC iter.                  ...        0 min,  0.075 sec
     gradient                   ...        0 min,  0.053 sec
 * total energy  :  -140.4488288 Eh     change       -0.5239692E-03 Eh
   gradient norm :     0.0076773 Eh/α   predicted    -0.4353009E-03 ( -16.92%)
   displ. norm   :     0.6867161 α      lambda       -0.6747172E-03
   maximum displ.:     0.3569606 α      in ANC's #5, #9, #3, ...

........................................................................
.............................. CYCLE   31 ..............................
........................................................................

 iter      E             dE          RMSdq      gap      omega  full diag
   1   -142.8982208 -0.142898E+03  0.168E-01    1.20       0.0  T
   2   -142.8982332 -0.124519E-04  0.974E-02    1.20       1.0  T
   3   -142.8981117  0.121584E-03  0.336E-02    1.20       1.0  T
   4   -142.8982358 -0.124127E-03  0.934E-03    1.20       1.2  T
   5   -142.8982436 -0.778426E-05  0.342E-03    1.20       3.2  T
   6   -142.8982439 -0.317345E-06  0.139E-03    1.20       8.0  T
   7   -142.8982441 -0.189135E-06  0.463E-04    1.20      23.9  T
   8   -142.8982441 -0.168743E-07  0.203E-04    1.20      54.4  T
     SCC iter.                  ...        0 min,  0.057 sec
     gradient                   ...        0 min,  0.058 sec
 * total energy  :  -140.4493976 Eh     change       -0.5688285E-03 Eh
   gradient norm :     0.0073367 Eh/α   predicted    -0.4964513E-03 ( -12.72%)
   displ. norm   :     0.7340755 α      lambda       -0.6661792E-03
   maximum displ.:     0.3741831 α      in ANC's #5, #9, #3, ...

........................................................................
.............................. CYCLE   32 ..............................
........................................................................

 iter      E             dE          RMSdq      gap      omega  full diag
   1   -142.8930159 -0.142893E+03  0.172E-01    1.21       0.0  T
   2   -142.8930296 -0.136446E-04  0.999E-02    1.21       1.0  T
   3   -142.8929880  0.416106E-04  0.217E-02    1.20       1.0  T
   4   -142.8930321 -0.441686E-04  0.763E-03    1.21       1.4  T
   5   -142.8930359 -0.375273E-05  0.412E-03    1.21       2.7  T
   6   -142.8930370 -0.105791E-05  0.174E-03    1.21       6.4  T
   7   -142.8930373 -0.330993E-06  0.498E-04    1.21      22.2  T
   8   -142.8930373 -0.175729E-07  0.209E-04    1.21      52.7  T
     SCC iter.                  ...        0 min,  0.054 sec
     gradient                   ...        0 min,  0.055 sec
 * total energy  :  -140.4499439 Eh     change       -0.5462712E-03 Eh
   gradient norm :     0.0099937 Eh/α   predicted    -0.5125847E-03 (  -6.17%)
   displ. norm   :     0.5964492 α      lambda       -0.8121743E-03
   maximum displ.:     0.2783174 α      in ANC's #5, #14, #9, ...

........................................................................
.............................. CYCLE   33 ..............................
........................................................................

 iter      E             dE          RMSdq      gap      omega  full diag
   1   -142.9073082 -0.142907E+03  0.170E-01    1.21       0.0  T
   2   -142.9073157 -0.743291E-05  0.987E-02    1.21       1.0  T
   3   -142.9069928  0.322907E-03  0.510E-02    1.21       1.0  T
   4   -142.9073261 -0.333278E-03  0.105E-02    1.21       1.0  T
   5   -142.9073359 -0.981010E-05  0.363E-03    1.21       3.0  T
   6   -142.9073361 -0.249034E-06  0.175E-03    1.21       6.3  T
   7   -142.9073363 -0.197519E-06  0.547E-04    1.21      20.2  T
   8   -142.9073363 -0.176464E-07  0.212E-04    1.21      52.2  T
     SCC iter.                  ...        0 min,  0.057 sec
     gradient                   ...        0 min,  0.053 sec
 * total energy  :  -140.4503670 Eh     change       -0.4231071E-03 Eh
   gradient norm :     0.0130994 Eh/α   predicted    -0.5505542E-03 (  30.12%)
   displ. norm   :     0.6223853 α      lambda       -0.6765667E-03
   maximum displ.:     0.3366175 α      in ANC's #9, #5, #3, ...

........................................................................
.............................. CYCLE   34 ..............................
........................................................................

 iter      E             dE          RMSdq      gap      omega  full diag
   1   -142.8981477 -0.142898E+03  0.145E-01    1.21       0.0  T
   2   -142.8981583 -0.105974E-04  0.851E-02    1.21       1.0  T
   3   -142.8981157  0.425507E-04  0.211E-02    1.21       1.0  T
   4   -142.8981590 -0.432350E-04  0.735E-03    1.21       1.5  T
   5   -142.8981632 -0.423520E-05  0.359E-03    1.21       3.1  T
   6   -142.8981641 -0.936485E-06  0.136E-03    1.21       8.1  T
   7   -142.8981643 -0.120312E-06  0.501E-04    1.21      22.0  T
   8   -142.8981643 -0.149420E-07  0.216E-04    1.21      51.1  T
     SCC iter.                  ...        0 min,  0.057 sec
     gradient                   ...        0 min,  0.054 sec
 * total energy  :  -140.4507938 Eh     change       -0.4268220E-03 Eh
   gradient norm :     0.0117346 Eh/α   predicted    -0.4693272E-03 (   9.96%)
   displ. norm   :     0.3240708 α      lambda       -0.4594419E-03
   maximum displ.:     0.1766383 α      in ANC's #5, #9, #3, ...

........................................................................
.............................. CYCLE   35 ..............................
........................................................................

 iter      E             dE          RMSdq      gap      omega  full diag
   1   -142.8992248 -0.142899E+03  0.730E-02    1.21       0.0  T
   2   -142.8992290 -0.421608E-05  0.427E-02    1.21       1.0  T
   3   -142.8992137  0.153212E-04  0.119E-02    1.21       1.0  T
   4   -142.8992301 -0.164204E-04  0.359E-03    1.21       3.1  T
   5   -142.8992311 -0.949512E-06  0.209E-03    1.21       5.3  T
   6   -142.8992315 -0.360981E-06  0.773E-04    1.21      14.3  T
   7   -142.8992315 -0.362216E-07  0.264E-04    1.21      41.9  T
     SCC iter.                  ...        0 min,  0.058 sec
     gradient                   ...        0 min,  0.056 sec
 * total energy  :  -140.4511266 Eh     change       -0.3328531E-03 Eh
   gradient norm :     0.0086739 Eh/α   predicted    -0.2538475E-03 ( -23.74%)
   displ. norm   :     0.4654537 α      lambda       -0.5453967E-03
   maximum displ.:     0.2537610 α      in ANC's #5, #9, #3, ...

........................................................................
.............................. CYCLE   36 ..............................
........................................................................

 iter      E             dE          RMSdq      gap      omega  full diag
   1   -142.9044034 -0.142904E+03  0.110E-01    1.21       0.0  T
   2   -142.9044064 -0.292441E-05  0.648E-02    1.21       1.0  T
   3   -142.9042812  0.125118E-03  0.316E-02    1.22       1.0  T
   4   -142.9044087 -0.127447E-03  0.751E-03    1.21       1.5  T
   5   -142.9044140 -0.527006E-05  0.224E-03    1.21       4.9  T
   6   -142.9044141 -0.120004E-06  0.999E-04    1.21      11.1  T
   7   -142.9044141 -0.609168E-07  0.356E-04    1.21      31.1  T
     SCC iter.                  ...        0 min,  0.047 sec
     gradient                   ...        0 min,  0.056 sec
 * total energy  :  -140.4515112 Eh     change       -0.3846023E-03 Eh
   gradient norm :     0.0094537 Eh/α   predicted    -0.3317778E-03 ( -13.73%)
   displ. norm   :     0.4984535 α      lambda       -0.4753525E-03
   maximum displ.:     0.2902869 α      in ANC's #5, #9, #3, ...

........................................................................
.............................. CYCLE   37 ..............................
........................................................................

 iter      E             dE          RMSdq      gap      omega  full diag
   1   -142.9092782 -0.142909E+03  0.107E-01    1.22       0.0  T
   2   -142.9092846 -0.634209E-05  0.629E-02    1.21       1.0  T
   3   -142.9092057  0.788973E-04  0.252E-02    1.22       1.0  T
   4   -142.9092843 -0.786112E-04  0.778E-03    1.21       1.4  T
   5   -142.9092902 -0.590208E-05  0.251E-03    1.21       4.4  T
   6   -142.9092905 -0.301909E-06  0.995E-04    1.21      11.1  T
   7   -142.9092905 -0.404805E-07  0.415E-04    1.21      26.6  T
     SCC iter.                  ...        0 min,  0.064 sec
     gradient                   ...        0 min,  0.054 sec
 * total energy  :  -140.4518582 Eh     change       -0.3469931E-03 Eh
   gradient norm :     0.0086001 Eh/α   predicted    -0.2967325E-03 ( -14.48%)
   displ. norm   :     0.6270260 α      lambda       -0.4790817E-03
   maximum displ.:     0.3656846 α      in ANC's #5, #9, #3, ...

........................................................................
.............................. CYCLE   38 ..............................
........................................................................

 iter      E             dE          RMSdq      gap      omega  full diag
   1   -142.9056990 -0.142906E+03  0.140E-01    1.22       0.0  T
   2   -142.9057080 -0.899233E-05  0.816E-02    1.22       1.0  T
   3   -142.9056938  0.141498E-04  0.157E-02    1.22       1.0  T
   4   -142.9057114 -0.175676E-04  0.396E-03    1.22       2.8  T
   5   -142.9057113  0.848106E-07  0.289E-03    1.22       3.8  T
   6   -142.9057118 -0.526537E-06  0.139E-03    1.22       8.0  T
   7   -142.9057120 -0.178401E-06  0.479E-04    1.22      23.0  T
   8   -142.9057120 -0.184907E-07  0.195E-04    1.22      56.6  T
     SCC iter.                  ...        0 min,  0.057 sec
     gradient                   ...        0 min,  0.056 sec
 * total energy  :  -140.4522384 Eh     change       -0.3801384E-03 Eh
   gradient norm :     0.0072589 Eh/α   predicted    -0.3337202E-03 ( -12.21%)
   displ. norm   :     0.5623914 α      lambda       -0.5408719E-03
   maximum displ.:     0.3247038 α      in ANC's #5, #10, #9, ...

........................................................................
.............................. CYCLE   39 ..............................
........................................................................

 iter      E             dE          RMSdq      gap      omega  full diag
   1   -142.9107671 -0.142911E+03  0.121E-01    1.22       0.0  T
   2   -142.9107764 -0.928178E-05  0.707E-02    1.22       1.0  T
   3   -142.9107270  0.494272E-04  0.267E-02    1.21       1.0  T
   4   -142.9107785 -0.514877E-04  0.697E-03    1.22       1.6  T
   5   -142.9107827 -0.419210E-05  0.329E-03    1.22       3.4  T
   6   -142.9107833 -0.614256E-06  0.155E-03    1.22       7.1  T
   7   -142.9107835 -0.163354E-06  0.422E-04    1.22      26.2  T
   8   -142.9107835 -0.103789E-07  0.173E-04    1.22      64.0  T
     SCC iter.                  ...        0 min,  0.054 sec
     gradient                   ...        0 min,  0.058 sec
 * total energy  :  -140.4525965 Eh     change       -0.3581283E-03 Eh
   gradient norm :     0.0102889 Eh/α   predicted    -0.3559722E-03 (  -0.60%)
   displ. norm   :     0.6805302 α      lambda       -0.4982980E-03
   maximum displ.:     0.3887859 α      in ANC's #5, #9, #3, ...

........................................................................
.............................. CYCLE   40 ..............................
........................................................................

 iter      E             dE          RMSdq      gap      omega  full diag
   1   -142.9032386 -0.142903E+03  0.148E-01    1.22       0.0  T
   2   -142.9032494 -0.108030E-04  0.865E-02    1.21       1.0  T
   3   -142.9032326  0.167942E-04  0.165E-02    1.22       1.0  T
   4   -142.9032537 -0.211295E-04  0.429E-03    1.21       2.6  T
   5   -142.9032534  0.303370E-06  0.330E-03    1.21       3.3  T
   6   -142.9032542 -0.806919E-06  0.160E-03    1.21       6.9  T
   7   -142.9032545 -0.252404E-06  0.417E-04    1.21      26.5  T
   8   -142.9032545 -0.971158E-08  0.200E-04    1.21      55.2  T
     SCC iter.                  ...        0 min,  0.055 sec
     gradient                   ...        0 min,  0.054 sec
 * total energy  :  -140.4528801 Eh     change       -0.2835822E-03 Eh
   gradient norm :     0.0106290 Eh/α   predicted    -0.3645380E-03 (  28.55%)
   displ. norm   :     0.3554149 α      lambda       -0.3414128E-03
   maximum displ.:     0.1966148 α      in ANC's #5, #3, #10, ...

........................................................................
.............................. CYCLE   41 ..............................
........................................................................

 iter      E             dE          RMSdq      gap      omega  full diag
   1   -142.9051566 -0.142905E+03  0.688E-02    1.21       0.0  T
   2   -142.9051582 -0.155283E-05  0.405E-02    1.21       1.0  T
   3   -142.9051047  0.535010E-04  0.214E-02    1.21       1.0  T
   4   -142.9051593 -0.545907E-04  0.463E-03    1.21       2.4  T
   5   -142.9051613 -0.200228E-05  0.140E-03    1.21       7.9  T
   6   -142.9051614 -0.654672E-07  0.690E-04    1.21      16.0  T
   7   -142.9051614 -0.182005E-07  0.304E-04    1.21      36.4  T
     SCC iter.                  ...        0 min,  0.065 sec
     gradient                   ...        0 min,  0.054 sec
 * total energy  :  -140.4531000 Eh     change       -0.2199036E-03 Eh
   gradient norm :     0.0088663 Eh/α   predicted    -0.1922725E-03 ( -12.57%)
   displ. norm   :     0.4317944 α      lambda       -0.3879815E-03
   maximum displ.:     0.2331133 α      in ANC's #5, #3, #10, ...

........................................................................
.............................. CYCLE   42 ..............................
........................................................................

 iter      E             dE          RMSdq      gap      omega  full diag
   1   -142.9053672 -0.142905E+03  0.911E-02    1.20       0.0  T
   2   -142.9053738 -0.666025E-05  0.532E-02    1.20       1.0  T
   3   -142.9053107  0.631007E-04  0.238E-02    1.20       1.0  T
   4   -142.9053717 -0.609559E-04  0.832E-03    1.20       1.3  T
   5   -142.9053790 -0.729064E-05  0.205E-03    1.20       5.4  T
   6   -142.9053791 -0.112735E-06  0.823E-04    1.20      13.4  T
   7   -142.9053791 -0.224289E-07  0.291E-04    1.20      38.0  T
     SCC iter.                  ...        0 min,  0.047 sec
     gradient                   ...        0 min,  0.057 sec
 * total energy  :  -140.4532810 Eh     change       -0.1810088E-03 Eh
   gradient norm :     0.0096084 Eh/α   predicted    -0.2301639E-03 (  27.16%)
   displ. norm   :     0.4372769 α      lambda       -0.2667745E-03
   maximum displ.:     0.2316762 α      in ANC's #5, #3, #9, ...
 * RMSD in coord.:     1.0609818 α      energy gain  -0.8580138E-02 Eh

generating ANC from exact Hessian ...
Using Lindh-Hessian (1995)
 Shifting diagonal of input Hessian by    9.9544921933642696E-003
 Lowest  eigenvalues of input Hessian
    0.000000    0.000000    0.000000    0.000000    0.000000    0.000000
    0.010000    0.010029    0.010102    0.010165    0.010246    0.010299
    0.010670    0.010853    0.010886    0.011110    0.011420    0.012042
 Highest eigenvalues
    2.235097    2.275997    2.281091    2.307312    2.312129    2.626685


........................................................................
.............................. CYCLE   43 ..............................
........................................................................

 iter      E             dE          RMSdq      gap      omega  full diag
   1   -142.9047806 -0.142905E+03  0.949E-02    1.20       0.0  T
   2   -142.9047847 -0.412914E-05  0.552E-02    1.20       1.0  T
   3   -142.9047648  0.198704E-04  0.135E-02    1.20       1.0  T
   4   -142.9047856 -0.207379E-04  0.449E-03    1.20       2.5  T
   5   -142.9047872 -0.163651E-05  0.246E-03    1.20       4.5  T
   6   -142.9047875 -0.351112E-06  0.105E-03    1.20      10.5  T
   7   -142.9047876 -0.878512E-07  0.208E-04    1.20      53.0  T
   8   -142.9047876 -0.147651E-08  0.113E-04    1.20      97.9  T
     SCC iter.                  ...        0 min,  0.064 sec
     gradient                   ...        0 min,  0.052 sec
 * total energy  :  -140.4534622 Eh     change       -0.1812349E-03 Eh
   gradient norm :     0.0070912 Eh/α   predicted     0.0000000E+00 (-100.00%)
   displ. norm   :     0.0635058 α      lambda       -0.6410411E-04
   maximum displ.:     0.0320764 α      in ANC's #11, #9, #24, ...

........................................................................
.............................. CYCLE   44 ..............................
........................................................................

 iter      E             dE          RMSdq      gap      omega  full diag
   1   -142.9065515 -0.142907E+03  0.305E-02    1.20       0.0  T
   2   -142.9065522 -0.703974E-06  0.175E-02    1.20       1.0  T
   3   -142.9065397  0.124633E-04  0.977E-03    1.20       1.1  T
   4   -142.9065525 -0.127555E-04  0.261E-03    1.20       4.2  T
   5   -142.9065531 -0.650502E-06  0.786E-04    1.20      14.0  T
   6   -142.9065532 -0.306074E-07  0.386E-04    1.20      28.6  T
     SCC iter.                  ...        0 min,  0.042 sec
     gradient                   ...        0 min,  0.056 sec
 * total energy  :  -140.4535327 Eh     change       -0.7050876E-04 Eh
   gradient norm :     0.0031348 Eh/α   predicted    -0.5277084E-04 ( -25.16%)
   displ. norm   :     0.1958044 α      lambda       -0.2214628E-03
   maximum displ.:     0.0750602 α      in ANC's #11, #4, #6, ...

........................................................................
.............................. CYCLE   45 ..............................
........................................................................

 iter      E             dE          RMSdq      gap      omega  full diag
   1   -142.9098503 -0.142910E+03  0.867E-02    1.20       0.0  T
   2   -142.9098577 -0.739428E-05  0.493E-02    1.20       1.0  T
   3   -142.9097978  0.599255E-04  0.215E-02    1.20       1.0  T
   4   -142.9098593 -0.615316E-04  0.661E-03    1.20       1.7  T
   5   -142.9098635 -0.418986E-05  0.208E-03    1.20       5.3  T
   6   -142.9098637 -0.198962E-06  0.986E-04    1.20      11.2  T
   7   -142.9098638 -0.381041E-07  0.394E-04    1.20      28.0  T
     SCC iter.                  ...        0 min,  0.048 sec
     gradient                   ...        0 min,  0.056 sec
 * total energy  :  -140.4535483 Eh     change       -0.1559447E-04 Eh
   gradient norm :     0.0099606 Eh/α   predicted    -0.1149782E-03 ( 637.30%)
   displ. norm   :     0.0664398 α      lambda       -0.1827973E-03
   maximum displ.:     0.0330893 α      in ANC's #11, #9, #3, ...

........................................................................
.............................. CYCLE   46 ..............................
........................................................................

 iter      E             dE          RMSdq      gap      omega  full diag
   1   -142.9087484 -0.142909E+03  0.476E-02    1.20       0.0  T
   2   -142.9087504 -0.194748E-05  0.266E-02    1.20       1.0  T
   3   -142.9087422  0.812933E-05  0.910E-03    1.20       1.2  T
   4   -142.9087512 -0.893108E-05  0.226E-03    1.20       4.9  T
   5   -142.9087516 -0.416091E-06  0.102E-03    1.20      10.8  T
   6   -142.9087516 -0.486384E-07  0.387E-04    1.20      28.5  T
   7   -142.9087516 -0.781779E-08  0.130E-04    1.20      85.2  T
     SCC iter.                  ...        0 min,  0.048 sec
     gradient                   ...        0 min,  0.056 sec
 * total energy  :  -140.4536650 Eh     change       -0.1167096E-03 Eh
   gradient norm :     0.0055036 Eh/α   predicted    -0.9180328E-04 ( -21.34%)
   displ. norm   :     0.1247640 α      lambda       -0.1049265E-03
   maximum displ.:     0.0576054 α      in ANC's #11, #9, #3, ...

........................................................................
.............................. CYCLE   47 ..............................
........................................................................

 iter      E             dE          RMSdq      gap      omega  full diag
   1   -142.9075670 -0.142908E+03  0.375E-02    1.20       0.0  T
   2   -142.9075673 -0.326381E-06  0.220E-02    1.20       1.0  T
   3   -142.9075523  0.150252E-04  0.116E-02    1.20       1.0  T
   4   -142.9075676 -0.153088E-04  0.269E-03    1.20       4.1  T
   5   -142.9075683 -0.669127E-06  0.906E-04    1.20      12.2  T
   6   -142.9075683 -0.285843E-07  0.439E-04    1.20      25.2  T
     SCC iter.                  ...        0 min,  0.045 sec
     gradient                   ...        0 min,  0.053 sec
 * total energy  :  -140.4537330 Eh     change       -0.6796705E-04 Eh
   gradient norm :     0.0035169 Eh/α   predicted    -0.5328623E-04 ( -21.60%)
   displ. norm   :     0.2790861 α      lambda       -0.1420109E-03
   maximum displ.:     0.1264872 α      in ANC's #11, #9, #3, ...

........................................................................
.............................. CYCLE   48 ..............................
........................................................................

 iter      E             dE          RMSdq      gap      omega  full diag
   1   -142.9066386 -0.142907E+03  0.642E-02    1.20       0.0  T
   2   -142.9066396 -0.103463E-05  0.376E-02    1.20       1.0  T
   3   -142.9066069  0.327401E-04  0.174E-02    1.20       1.0  T
   4   -142.9066402 -0.333659E-04  0.392E-03    1.20       2.8  T
   5   -142.9066417 -0.144881E-05  0.136E-03    1.20       8.1  T
   6   -142.9066418 -0.873442E-07  0.604E-04    1.20      18.3  T
   7   -142.9066418 -0.154511E-07  0.226E-04    1.20      48.9  T
     SCC iter.                  ...        0 min,  0.058 sec
     gradient                   ...        0 min,  0.053 sec
 * total energy  :  -140.4538370 Eh     change       -0.1039814E-03 Eh
   gradient norm :     0.0047941 Eh/α   predicted    -0.7653592E-04 ( -26.39%)
   displ. norm   :     0.3974821 α      lambda       -0.1622642E-03
   maximum displ.:     0.1696666 α      in ANC's #11, #9, #3, ...

........................................................................
.............................. CYCLE   49 ..............................
........................................................................

 iter      E             dE          RMSdq      gap      omega  full diag
   1   -142.9059756 -0.142906E+03  0.895E-02    1.20       0.0  T
   2   -142.9059780 -0.236650E-05  0.520E-02    1.20       1.0  T
   3   -142.9059173  0.606670E-04  0.233E-02    1.20       1.0  T
   4   -142.9059801 -0.627758E-04  0.471E-03    1.20       2.3  T
   5   -142.9059820 -0.187530E-05  0.189E-03    1.20       5.9  T
   6   -142.9059821 -0.132212E-06  0.846E-04    1.20      13.1  T
   7   -142.9059822 -0.348672E-07  0.273E-04    1.20      40.4  T
     SCC iter.                  ...        0 min,  0.047 sec
     gradient                   ...        0 min,  0.065 sec
 * total energy  :  -140.4539645 Eh     change       -0.1274881E-03 Eh
   gradient norm :     0.0055169 Eh/α   predicted    -0.9395756E-04 ( -26.30%)
   displ. norm   :     0.4637089 α      lambda       -0.1842655E-03
   maximum displ.:     0.1847704 α      in ANC's #11, #9, #3, ...

........................................................................
.............................. CYCLE   50 ..............................
........................................................................

 iter      E             dE          RMSdq      gap      omega  full diag
   1   -142.9059495 -0.142906E+03  0.946E-02    1.19       0.0  T
   2   -142.9059523 -0.277040E-05  0.547E-02    1.19       1.0  T
   3   -142.9058672  0.850261E-04  0.273E-02    1.19       1.0  T
   4   -142.9059554 -0.881237E-04  0.517E-03    1.19       2.1  T
   5   -142.9059577 -0.229729E-05  0.198E-03    1.19       5.6  T
   6   -142.9059578 -0.128880E-06  0.912E-04    1.19      12.1  T
   7   -142.9059578 -0.400720E-07  0.300E-04    1.19      36.8  T
     SCC iter.                  ...        0 min,  0.050 sec
     gradient                   ...        0 min,  0.054 sec
 * total energy  :  -140.4541127 Eh     change       -0.1482639E-03 Eh
   gradient norm :     0.0048274 Eh/α   predicted    -0.1119465E-03 ( -24.50%)
   displ. norm   :     0.5057005 α      lambda       -0.2094629E-03
   maximum displ.:     0.2016699 α      in ANC's #9, #3, #11, ...

........................................................................
.............................. CYCLE   51 ..............................
........................................................................

 iter      E             dE          RMSdq      gap      omega  full diag
   1   -142.9069108 -0.142907E+03  0.935E-02    1.19       0.0  T
   2   -142.9069131 -0.222842E-05  0.540E-02    1.19       1.0  T
   3   -142.9067994  0.113649E-03  0.313E-02    1.19       1.0  T
   4   -142.9069169 -0.117499E-03  0.569E-03    1.19       1.9  T
   5   -142.9069198 -0.294251E-05  0.188E-03    1.19       5.9  T
   6   -142.9069199 -0.973981E-07  0.841E-04    1.19      13.1  T
   7   -142.9069200 -0.329592E-07  0.292E-04    1.19      37.9  T
     SCC iter.                  ...        0 min,  0.052 sec
     gradient                   ...        0 min,  0.053 sec
 * total energy  :  -140.4542835 Eh     change       -0.1707439E-03 Eh
   gradient norm :     0.0048130 Eh/α   predicted    -0.1315145E-03 ( -22.98%)
   displ. norm   :     0.5322845 α      lambda       -0.2308197E-03
   maximum displ.:     0.2152862 α      in ANC's #9, #3, #6, ...

........................................................................
.............................. CYCLE   52 ..............................
........................................................................

 iter      E             dE          RMSdq      gap      omega  full diag
   1   -142.9076791 -0.142908E+03  0.935E-02    1.18       0.0  T
   2   -142.9076810 -0.193040E-05  0.540E-02    1.18       1.0  T
   3   -142.9075565  0.124491E-03  0.329E-02    1.18       1.0  T
   4   -142.9076847 -0.128182E-03  0.631E-03    1.18       1.8  T
   5   -142.9076885 -0.376462E-05  0.187E-03    1.18       5.9  T
   6   -142.9076886 -0.753597E-07  0.811E-04    1.18      13.6  T
   7   -142.9076886 -0.328440E-07  0.254E-04    1.18      43.4  T
     SCC iter.                  ...        0 min,  0.052 sec
     gradient                   ...        0 min,  0.056 sec
 * total energy  :  -140.4544765 Eh     change       -0.1929748E-03 Eh
   gradient norm :     0.0057941 Eh/α   predicted    -0.1481087E-03 ( -23.25%)
   displ. norm   :     0.5671869 α      lambda       -0.2629927E-03
   maximum displ.:     0.2306584 α      in ANC's #9, #3, #6, ...

........................................................................
.............................. CYCLE   53 ..............................
........................................................................

 iter      E             dE          RMSdq      gap      omega  full diag
   1   -142.9078093 -0.142908E+03  0.985E-02    1.18       0.0  T
   2   -142.9078115 -0.221379E-05  0.570E-02    1.18       1.0  T
   3   -142.9076874  0.124111E-03  0.329E-02    1.18       1.0  T
   4   -142.9078141 -0.126668E-03  0.705E-03    1.18       1.6  T
   5   -142.9078189 -0.483310E-05  0.195E-03    1.18       5.7  T
   6   -142.9078190 -0.699842E-07  0.820E-04    1.18      13.5  T
   7   -142.9078190 -0.305547E-07  0.258E-04    1.18      42.7  T
     SCC iter.                  ...        0 min,  0.047 sec
     gradient                   ...        0 min,  0.055 sec
 * total energy  :  -140.4546962 Eh     change       -0.2196998E-03 Eh
   gradient norm :     0.0058103 Eh/α   predicted    -0.1738008E-03 ( -20.89%)
   displ. norm   :     0.6025934 α      lambda       -0.2644350E-03
   maximum displ.:     0.2459628 α      in ANC's #9, #3, #6, ...

........................................................................
.............................. CYCLE   54 ..............................
........................................................................

 iter      E             dE          RMSdq      gap      omega  full diag
   1   -142.9056261 -0.142906E+03  0.107E-01    1.17       0.0  T
   2   -142.9056299 -0.384575E-05  0.622E-02    1.17       1.0  T
   3   -142.9055421  0.878086E-04  0.279E-02    1.17       1.0  T
   4   -142.9056301 -0.879725E-04  0.738E-03    1.17       1.5  T
   5   -142.9056355 -0.544165E-05  0.214E-03    1.17       5.2  T
   6   -142.9056356 -0.110125E-06  0.838E-04    1.17      13.2  T
   7   -142.9056357 -0.212195E-07  0.311E-04    1.17      35.5  T
     SCC iter.                  ...        0 min,  0.055 sec
     gradient                   ...        0 min,  0.054 sec
 * total energy  :  -140.4549103 Eh     change       -0.2141462E-03 Eh
   gradient norm :     0.0042159 Eh/α   predicted    -0.1802280E-03 ( -15.84%)
   displ. norm   :     0.5182392 α      lambda       -0.2250520E-03
   maximum displ.:     0.2085503 α      in ANC's #9, #3, #6, ...

........................................................................
.............................. CYCLE   55 ..............................
........................................................................

 iter      E             dE          RMSdq      gap      omega  full diag
   1   -142.9070613 -0.142907E+03  0.102E-01    1.17       0.0  T
   2   -142.9070652 -0.392937E-05  0.596E-02    1.17       1.0  T
   3   -142.9070339  0.312553E-04  0.189E-02    1.17       1.0  T
   4   -142.9070644 -0.304247E-04  0.619E-03    1.17       1.8  T
   5   -142.9070682 -0.380750E-05  0.236E-03    1.17       4.7  T
   6   -142.9070684 -0.273087E-06  0.107E-03    1.17      10.3  T
   7   -142.9070685 -0.525367E-07  0.409E-04    1.17      27.0  T
   8   -142.9070685 -0.969339E-08  0.153E-04    1.17      72.0  T
     SCC iter.                  ...        0 min,  0.061 sec
     gradient                   ...        0 min,  0.053 sec
 * total energy  :  -140.4550689 Eh     change       -0.1586451E-03 Eh
   gradient norm :     0.0047587 Eh/α   predicted    -0.1427484E-03 ( -10.02%)
   displ. norm   :     0.6650796 α      lambda       -0.2119679E-03
   maximum displ.:     0.2825795 α      in ANC's #9, #3, #6, ...

........................................................................
.............................. CYCLE   56 ..............................
........................................................................

 iter      E             dE          RMSdq      gap      omega  full diag
   1   -142.8969331 -0.142897E+03  0.110E-01    1.17       0.0  T
   2   -142.8969395 -0.638644E-05  0.639E-02    1.17       1.0  T
   3   -142.8968963  0.431913E-04  0.208E-02    1.17       1.0  T
   4   -142.8969393 -0.429798E-04  0.681E-03    1.17       1.6  T
   5   -142.8969435 -0.427162E-05  0.290E-03    1.17       3.8  T
   6   -142.8969441 -0.551857E-06  0.126E-03    1.17       8.8  T
   7   -142.8969442 -0.752459E-07  0.469E-04    1.17      23.5  T
   8   -142.8969442 -0.132627E-07  0.130E-04    1.17      84.8  T
     SCC iter.                  ...        0 min,  0.057 sec
     gradient                   ...        0 min,  0.056 sec
 * total energy  :  -140.4551487 Eh     change       -0.7975632E-04 Eh
   gradient norm :     0.0088008 Eh/α   predicted    -0.1528642E-03 (  91.66%)
   displ. norm   :     0.1985954 α      lambda       -0.2359963E-03
   maximum displ.:     0.0744085 α      in ANC's #3, #2, #1, ...

........................................................................
.............................. CYCLE   57 ..............................
........................................................................

 iter      E             dE          RMSdq      gap      omega  full diag
   1   -142.9040421 -0.142904E+03  0.521E-02    1.17       0.0  T
   2   -142.9040436 -0.143134E-05  0.306E-02    1.17       1.0  T
   3   -142.9040175  0.260579E-04  0.156E-02    1.17       1.0  T
   4   -142.9040432 -0.257188E-04  0.476E-03    1.17       2.3  T
   5   -142.9040457 -0.250202E-05  0.127E-03    1.17       8.7  T
   6   -142.9040458 -0.756519E-07  0.685E-04    1.17      16.1  T
   7   -142.9040458 -0.192380E-07  0.211E-04    1.17      52.3  T
     SCC iter.                  ...        0 min,  0.047 sec
     gradient                   ...        0 min,  0.055 sec
 * total energy  :  -140.4552986 Eh     change       -0.1499054E-03 Eh
   gradient norm :     0.0092666 Eh/α   predicted    -0.1226535E-03 ( -18.18%)
   displ. norm   :     0.3336555 α      lambda       -0.1786050E-03
   maximum displ.:     0.1548290 α      in ANC's #3, #9, #2, ...

........................................................................
.............................. CYCLE   58 ..............................
........................................................................

 iter      E             dE          RMSdq      gap      omega  full diag
   1   -142.9103924 -0.142910E+03  0.568E-02    1.17       0.0  T
   2   -142.9103944 -0.195782E-05  0.331E-02    1.17       1.0  T
   3   -142.9103849  0.943089E-05  0.108E-02    1.17       1.0  T
   4   -142.9103953 -0.103883E-04  0.216E-03    1.17       5.1  T
   5   -142.9103954 -0.973732E-07  0.163E-03    1.17       6.8  T
   6   -142.9103956 -0.204374E-06  0.771E-04    1.17      14.3  T
   7   -142.9103957 -0.455799E-07  0.236E-04    1.17      46.9  T
     SCC iter.                  ...        0 min,  0.049 sec
     gradient                   ...        0 min,  0.055 sec
 * total energy  :  -140.4553974 Eh     change       -0.9880954E-04 Eh
   gradient norm :     0.0073022 Eh/α   predicted    -0.9924500E-04 (   0.44%)
   displ. norm   :     0.4831286 α      lambda       -0.1740094E-03
   maximum displ.:     0.2151411 α      in ANC's #3, #9, #2, ...

........................................................................
.............................. CYCLE   59 ..............................
........................................................................

 iter      E             dE          RMSdq      gap      omega  full diag
   1   -142.9090134 -0.142909E+03  0.887E-02    1.17       0.0  T
   2   -142.9090180 -0.457716E-05  0.510E-02    1.17       1.0  T
   3   -142.9089961  0.219031E-04  0.161E-02    1.17       1.0  T
   4   -142.9090195 -0.233545E-04  0.433E-03    1.17       2.5  T
   5   -142.9090206 -0.112469E-05  0.262E-03    1.17       4.2  T
   6   -142.9090211 -0.491575E-06  0.917E-04    1.17      12.0  T
   7   -142.9090212 -0.601391E-07  0.249E-04    1.17      44.4  T
     SCC iter.                  ...        0 min,  0.054 sec
     gradient                   ...        0 min,  0.053 sec
 * total energy  :  -140.4555293 Eh     change       -0.1319235E-03 Eh
   gradient norm :     0.0041576 Eh/α   predicted    -0.1073192E-03 ( -18.65%)
   displ. norm   :     0.5227773 α      lambda       -0.1535528E-03
   maximum displ.:     0.2463660 α      in ANC's #3, #9, #2, ...

........................................................................
.............................. CYCLE   60 ..............................
........................................................................

 iter      E             dE          RMSdq      gap      omega  full diag
   1   -142.9067552 -0.142907E+03  0.896E-02    1.16       0.0  T
   2   -142.9067592 -0.402753E-05  0.518E-02    1.16       1.0  T
   3   -142.9066956  0.636568E-04  0.261E-02    1.16       1.0  T
   4   -142.9067613 -0.656838E-04  0.612E-03    1.16       1.8  T
   5   -142.9067647 -0.342704E-05  0.259E-03    1.16       4.3  T
   6   -142.9067651 -0.368815E-06  0.104E-03    1.16      10.7  T
   7   -142.9067651 -0.691196E-07  0.249E-04    1.16      44.3  T
   8   -142.9067651 -0.361729E-08  0.909E-05    1.16     121.5  T
     SCC iter.                  ...        0 min,  0.059 sec
     gradient                   ...        0 min,  0.057 sec
 * total energy  :  -140.4556451 Eh     change       -0.1157364E-03 Eh
   gradient norm :     0.0052569 Eh/α   predicted    -0.9776506E-04 ( -15.53%)
   displ. norm   :     0.4515256 α      lambda       -0.1400365E-03
   maximum displ.:     0.2295525 α      in ANC's #3, #2, #9, ...

........................................................................
.............................. CYCLE   61 ..............................
........................................................................

 iter      E             dE          RMSdq      gap      omega  full diag
   1   -142.9071806 -0.142907E+03  0.751E-02    1.16       0.0  T
   2   -142.9071826 -0.204079E-05  0.436E-02    1.16       1.0  T
   3   -142.9071187  0.638950E-04  0.244E-02    1.16       1.0  T
   4   -142.9071842 -0.654742E-04  0.524E-03    1.16       2.1  T
   5   -142.9071868 -0.260560E-05  0.192E-03    1.16       5.8  T
   6   -142.9071869 -0.131740E-06  0.864E-04    1.16      12.8  T
   7   -142.9071870 -0.524600E-07  0.202E-04    1.16      54.8  T
     SCC iter.                  ...        0 min,  0.047 sec
     gradient                   ...        0 min,  0.056 sec
 * total energy  :  -140.4557569 Eh     change       -0.1117964E-03 Eh
   gradient norm :     0.0047224 Eh/α   predicted    -0.8429472E-04 ( -24.60%)
   displ. norm   :     0.4156655 α      lambda       -0.1441322E-03
   maximum displ.:     0.2170447 α      in ANC's #3, #2, #1, ...

........................................................................
.............................. CYCLE   62 ..............................
........................................................................

 iter      E             dE          RMSdq      gap      omega  full diag
   1   -142.9080120 -0.142908E+03  0.702E-02    1.16       0.0  T
   2   -142.9080138 -0.186046E-05  0.409E-02    1.16       1.0  T
   3   -142.9079756  0.382626E-04  0.186E-02    1.16       1.0  T
   4   -142.9080145 -0.389925E-04  0.445E-03    1.16       2.5  T
   5   -142.9080164 -0.180138E-05  0.172E-03    1.16       6.4  T
   6   -142.9080165 -0.109700E-06  0.720E-04    1.16      15.3  T
   7   -142.9080165 -0.371915E-07  0.174E-04    1.16      63.4  T
     SCC iter.                  ...        0 min,  0.048 sec
     gradient                   ...        0 min,  0.061 sec
 * total energy  :  -140.4558742 Eh     change       -0.1173609E-03 Eh
   gradient norm :     0.0045876 Eh/α   predicted    -0.8452321E-04 ( -27.98%)
   displ. norm   :     0.4430217 α      lambda       -0.1440591E-03
   maximum displ.:     0.2311912 α      in ANC's #3, #1, #2, ...

........................................................................
.............................. CYCLE   63 ..............................
........................................................................

 iter      E             dE          RMSdq      gap      omega  full diag
   1   -142.9080249 -0.142908E+03  0.750E-02    1.15       0.0  T
   2   -142.9080275 -0.259607E-05  0.436E-02    1.15       1.0  T
   3   -142.9080181  0.937187E-05  0.961E-03    1.15       1.1  T
   4   -142.9080274 -0.927656E-05  0.399E-03    1.15       2.8  T
   5   -142.9080287 -0.130086E-05  0.183E-03    1.15       6.0  T
   6   -142.9080289 -0.206584E-06  0.491E-04    1.15      22.5  T
   7   -142.9080289 -0.158881E-07  0.182E-04    1.15      60.7  T
     SCC iter.                  ...        0 min,  0.051 sec
     gradient                   ...        0 min,  0.052 sec
 * total energy  :  -140.4559884 Eh     change       -0.1142097E-03 Eh
   gradient norm :     0.0040481 Eh/α   predicted    -0.8616850E-04 ( -24.55%)
   displ. norm   :     0.4886498 α      lambda       -0.1325489E-03
   maximum displ.:     0.2566149 α      in ANC's #3, #1, #2, ...

........................................................................
.............................. CYCLE   64 ..............................
........................................................................

 iter      E             dE          RMSdq      gap      omega  full diag
   1   -142.9073594 -0.142907E+03  0.835E-02    1.15       0.0  T
   2   -142.9073626 -0.321720E-05  0.484E-02    1.15       1.0  T
   3   -142.9073558  0.682757E-05  0.861E-03    1.15       1.3  T
   4   -142.9073625 -0.667953E-05  0.416E-03    1.15       2.7  T
   5   -142.9073638 -0.129052E-05  0.217E-03    1.15       5.1  T
   6   -142.9073641 -0.344742E-06  0.657E-04    1.15      16.8  T
   7   -142.9073641 -0.277280E-07  0.218E-04    1.15      50.6  T
     SCC iter.                  ...        0 min,  0.051 sec
     gradient                   ...        0 min,  0.057 sec
 * total energy  :  -140.4560909 Eh     change       -0.1024332E-03 Eh
   gradient norm :     0.0040790 Eh/α   predicted    -0.8210458E-04 ( -19.85%)
   displ. norm   :     0.4587869 α      lambda       -0.1142154E-03
   maximum displ.:     0.2461848 α      in ANC's #3, #1, #2, ...

........................................................................
.............................. CYCLE   65 ..............................
........................................................................

 iter      E             dE          RMSdq      gap      omega  full diag
   1   -142.9076208 -0.142908E+03  0.778E-02    1.16       0.0  T
   2   -142.9076231 -0.227141E-05  0.452E-02    1.16       1.0  T
   3   -142.9075942  0.288612E-04  0.155E-02    1.16       1.0  T
   4   -142.9076239 -0.296835E-04  0.393E-03    1.16       2.8  T
   5   -142.9076250 -0.113079E-05  0.172E-03    1.16       6.4  T
   6   -142.9076251 -0.130158E-06  0.586E-04    1.16      18.8  T
   7   -142.9076252 -0.251117E-07  0.182E-04    1.16      60.8  T
     SCC iter.                  ...        0 min,  0.047 sec
     gradient                   ...        0 min,  0.056 sec
 * total energy  :  -140.4561830 Eh     change       -0.9213229E-04 Eh
   gradient norm :     0.0039504 Eh/α   predicted    -0.6913152E-04 ( -24.96%)
   displ. norm   :     0.4783471 α      lambda       -0.1172874E-03
   maximum displ.:     0.2597311 α      in ANC's #3, #1, #2, ...

........................................................................
.............................. CYCLE   66 ..............................
........................................................................

 iter      E             dE          RMSdq      gap      omega  full diag
   1   -142.9068934 -0.142907E+03  0.821E-02    1.16       0.0  T
   2   -142.9068956 -0.212953E-05  0.475E-02    1.16       1.0  T
   3   -142.9068505  0.451106E-04  0.193E-02    1.16       1.0  T
   4   -142.9068974 -0.469679E-04  0.374E-03    1.16       3.0  T
   5   -142.9068982 -0.797882E-06  0.184E-03    1.16       6.0  T
   6   -142.9068984 -0.146677E-06  0.630E-04    1.16      17.5  T
   7   -142.9068984 -0.289785E-07  0.176E-04    1.16      62.7  T
     SCC iter.                  ...        0 min,  0.047 sec
     gradient                   ...        0 min,  0.056 sec
 * total energy  :  -140.4562812 Eh     change       -0.9813765E-04 Eh
   gradient norm :     0.0038658 Eh/α   predicted    -0.7206794E-04 ( -26.56%)
   displ. norm   :     0.4976968 α      lambda       -0.1412133E-03
   maximum displ.:     0.2719467 α      in ANC's #3, #1, #2, ...
 * RMSD in coord.:     0.9426202 α      energy gain  -0.3000159E-02 Eh

generating ANC from exact Hessian ...
Using Lindh-Hessian (1995)
 Shifting diagonal of input Hessian by    9.9522741464947006E-003
 Lowest  eigenvalues of input Hessian
    0.000000    0.000000    0.000000    0.000000    0.000000    0.000000
    0.010000    0.010027    0.010105    0.010219    0.010334    0.010517
    0.010674    0.010861    0.011150    0.011298    0.011696    0.012192
 Highest eigenvalues
    2.232996    2.279916    2.287059    2.313230    2.314680    2.631504


........................................................................
.............................. CYCLE   67 ..............................
........................................................................

 iter      E             dE          RMSdq      gap      omega  full diag
   1   -142.9092157 -0.142909E+03  0.890E-02    1.16       0.0  T
   2   -142.9092183 -0.258843E-05  0.515E-02    1.16       1.0  T
   3   -142.9091540  0.643102E-04  0.236E-02    1.16       1.0  T
   4   -142.9092205 -0.664982E-04  0.488E-03    1.16       2.3  T
   5   -142.9092223 -0.175941E-05  0.217E-03    1.16       5.1  T
   6   -142.9092224 -0.151914E-06  0.909E-04    1.16      12.2  T
   7   -142.9092225 -0.508045E-07  0.221E-04    1.16      49.9  T
     SCC iter.                  ...        0 min,  0.055 sec
     gradient                   ...        0 min,  0.053 sec
 * total energy  :  -140.4563892 Eh     change       -0.1080603E-03 Eh
   gradient norm :     0.0044549 Eh/α   predicted     0.0000000E+00 (-100.00%)
   displ. norm   :     0.0526169 α      lambda       -0.3121091E-04
   maximum displ.:     0.0286464 α      in ANC's #10, #24, #18, ...

........................................................................
.............................. CYCLE   68 ..............................
........................................................................

 iter      E             dE          RMSdq      gap      omega  full diag
   1   -142.9086482 -0.142909E+03  0.411E-02    1.16       0.0  T
   2   -142.9086494 -0.120754E-05  0.228E-02    1.16       1.0  T
   3   -142.9086447  0.471440E-05  0.665E-03    1.16       1.7  T
   4   -142.9086498 -0.506006E-05  0.202E-03    1.16       5.5  T
   5   -142.9086502 -0.396731E-06  0.757E-04    1.16      14.6  T
   6   -142.9086502 -0.254436E-07  0.321E-04    1.16      34.4  T
     SCC iter.                  ...        0 min,  0.042 sec
     gradient                   ...        0 min,  0.054 sec
 * total energy  :  -140.4564228 Eh     change       -0.3357406E-04 Eh
   gradient norm :     0.0025173 Eh/α   predicted    -0.3040099E-04 (  -9.45%)
   displ. norm   :     0.1120350 α      lambda       -0.9161704E-04
   maximum displ.:     0.0423574 α      in ANC's #10, #11, #1, ...

   *** GEOMETRY OPTIMIZATION CONVERGED AFTER 68 ITERATIONS ***

------------------------------------------------------------------------
 total energy gain   :        -0.3367958 Eh     -211.3425 kcal/mol
 total RMSD          :         2.4143897 a0        1.2776 Å
 total power (kW/mol):       -13.0037826 (step)  -99.3725 (real)
------------------------------------------------------------------------

 ANCopt (total)                0 d,  0 h,  0 min,  8.898 sec
 optimizer setup                ...        0 min,  0.000 sec (  0.002%)
 model hessian                  ...        0 min,  0.044 sec (  0.489%)
 ANC generation                 ...        0 min,  0.015 sec (  0.172%)
 coordinate transformation      ...        0 min,  0.003 sec (  0.035%)
 single point calculation       ...        0 min,  8.801 sec ( 98.907%)
 optimization log               ...        0 min,  0.015 sec (  0.168%)
 hessian update                 ...        0 min,  0.003 sec (  0.030%)
 rational function              ...        0 min,  0.011 sec (  0.121%)

================
 final structure:
================
 xtb: 6.7.1 (edcfbbe)
          08252607103D

 82 91  0     0  0            999 V2000
   -2.5036    2.3151   -8.8867 C   0  0  0  0  0  0  0  0  0  0  0  0
    2.1568    0.0109    6.8189 C   0  0  0  0  0  0  0  0  0  0  0  0
   -3.7652    0.7253   -4.5548 C   0  0  0  0  0  0  0  0  0  0  0  0
   -2.6041    5.0488  -10.3474 C   0  0  0  0  0  0  0  0  0  0  0  0
   -2.0011    0.5346  -10.4418 C   0  0  0  0  0  0  0  0  0  0  0  0
   -2.7741    6.0827  -10.6232 H   0  0  0  0  0  0  0  0  0  0  0  0
   -2.7333   -2.0527    1.7331 H   0  0  0  0  0  0  0  0  0  0  0  0
   -1.9705   -3.4066    3.9288 H   0  0  0  0  0  0  0  0  0  0  0  0
   -2.1597    5.7123   -8.3790 H   0  0  0  0  0  0  0  0  0  0  0  0
   -2.9395    1.4053   -8.0495 N   0  0  0  0  0  0  0  0  0  0  0  0
    4.6075   -0.7906    9.4685 C   0  0  0  0  0  0  0  0  0  0  0  0
    2.6583   -2.1870    7.6858 C   0  0  0  0  0  0  0  0  0  0  0  0
   -1.7995   -1.9750    2.2501 C   0  0  0  0  0  0  0  0  0  0  0  0
   -2.3130    4.8382   -8.9977 C   0  0  0  0  0  0  0  0  0  0  0  0
    0.8684   -4.0108    5.0806 C   0  0  0  0  0  0  0  0  0  0  0  0
    2.7554   -0.8034    7.7919 C   0  0  0  0  0  0  0  0  0  0  0  0
   -1.5956   -1.0529  -11.8069 H   0  0  0  0  0  0  0  0  0  0  0  0
    2.5407   -5.3875    7.7114 H   0  0  0  0  0  0  0  0  0  0  0  0
    0.4107   -7.2833    4.5239 H   0  0  0  0  0  0  0  0  0  0  0  0
   -1.7796    0.4104  -13.8002 H   0  0  0  0  0  0  0  0  0  0  0  0
   -4.5927    0.1962   -4.0879 H   0  0  0  0  0  0  0  0  0  0  0  0
   -2.3529    2.7497  -11.3810 C   0  0  0  0  0  0  0  0  0  0  0  0
   -0.8852    1.8760   -2.8183 N   0  0  0  0  0  0  0  0  0  0  0  0
    1.4911   -6.4605    6.1766 C   0  0  0  0  0  0  0  0  0  0  0  0
   -2.2656    1.9011  -10.2498 C   0  0  0  0  0  0  0  0  0  0  0  0
    3.0871   -2.8292    8.4399 H   0  0  0  0  0  0  0  0  0  0  0  0
    2.2588    1.0824    6.8990 H   0  0  0  0  0  0  0  0  0  0  0  0
    0.7451   -6.3753    5.0031 C   0  0  0  0  0  0  0  0  0  0  0  0
    1.3612   -1.8976    5.6533 C   0  0  0  0  0  0  0  0  0  0  0  0
    5.2010   -0.2201   10.5765 C   0  0  0  0  0  0  0  0  0  0  0  0
   -0.7642   -1.1232    1.8911 C   0  0  0  0  0  0  0  0  0  0  0  0
    0.2866    0.6665    0.4342 C   0  0  0  0  0  0  0  0  0  0  0  0
    2.2615    1.0664    2.0056 N   0  0  0  0  0  0  0  0  0  0  0  0
   -1.9128    0.8230  -12.8110 C   0  0  0  0  0  0  0  0  0  0  0  0
   -2.2249    3.6286   -8.3351 C   0  0  0  0  0  0  0  0  0  0  0  0
   -0.0852    2.4783   -2.9659 H   0  0  0  0  0  0  0  0  0  0  0  0
   -3.8008    0.8230   -5.9398 C   0  0  0  0  0  0  0  0  0  0  0  0
    1.3811    0.8862    1.2880 C   0  0  0  0  0  0  0  0  0  0  0  0
    1.9581   -2.7345    6.6255 C   0  0  0  0  0  0  0  0  0  0  0  0
   -1.7991   -0.3677   -0.0632 N   0  0  0  0  0  0  0  0  0  0  0  0
   -2.9359    1.5755   -6.7302 C   0  0  0  0  0  0  0  0  0  0  0  0
   -1.8744    0.3114   -1.1776 C   0  0  0  0  0  0  0  0  0  0  0  0
   -1.7557    1.8143   -3.8833 C   0  0  0  0  0  0  0  0  0  0  0  0
    1.6450   -4.0873    6.2560 C   0  0  0  0  0  0  0  0  0  0  0  0
    5.0388   -1.6662    9.0048 H   0  0  0  0  0  0  0  0  0  0  0  0
    0.2111    1.3799   -0.7605 C   0  0  0  0  0  0  0  0  0  0  0  0
    3.4529   -0.2134    8.9355 C   0  0  0  0  0  0  0  0  0  0  0  0
    4.6245    0.9234   11.1320 C   0  0  0  0  0  0  0  0  0  0  0  0
   -2.1870    2.1560  -12.6519 C   0  0  0  0  0  0  0  0  0  0  0  0
    1.0131    0.1366    5.0166 H   0  0  0  0  0  0  0  0  0  0  0  0
    1.4656   -0.5165    5.7470 C   0  0  0  0  0  0  0  0  0  0  0  0
    2.0685    1.4232    9.2163 H   0  0  0  0  0  0  0  0  0  0  0  0
    5.1996    1.5706   12.3212 C   0  0  0  0  0  0  0  0  0  0  0  0
    4.6202    2.4502   12.6530 H   0  0  0  0  0  0  0  0  0  0  0  0
    1.9525   -5.3233    6.8088 C   0  0  0  0  0  0  0  0  0  0  0  0
   -1.8116   -0.0017  -11.6900 C   0  0  0  0  0  0  0  0  0  0  0  0
   -2.8385    4.5573  -12.3553 H   0  0  0  0  0  0  0  0  0  0  0  0
    6.1924    1.2026   12.8972 O   0  0  0  0  0  0  0  0  0  0  0  0
    1.7145   -7.4323    6.5901 H   0  0  0  0  0  0  0  0  0  0  0  0
   -0.6698    3.3768   -4.8360 H   0  0  0  0  0  0  0  0  0  0  0  0
   -2.0530    2.6311   -6.2322 C   0  0  0  0  0  0  0  0  0  0  0  0
    3.5262    1.4867   10.6259 N   0  0  0  0  0  0  0  0  0  0  0  0
    1.0015    2.0747   -1.0132 H   0  0  0  0  0  0  0  0  0  0  0  0
    6.0942   -0.6289   11.0232 H   0  0  0  0  0  0  0  0  0  0  0  0
    0.2511   -1.3087    2.7961 N   0  0  0  0  0  0  0  0  0  0  0  0
   -1.9479   -0.0912   -9.5638 H   0  0  0  0  0  0  0  0  0  0  0  0
    1.1406   -0.8344    2.7877 H   0  0  0  0  0  0  0  0  0  0  0  0
   -4.5701    0.2736   -6.4649 H   0  0  0  0  0  0  0  0  0  0  0  0
   -2.6344    4.1460  -11.3740 C   0  0  0  0  0  0  0  0  0  0  0  0
    2.9687    0.9391    9.5720 C   0  0  0  0  0  0  0  0  0  0  0  0
   -1.4007   -2.6800    3.3858 C   0  0  0  0  0  0  0  0  0  0  0  0
   -1.8316    3.6383   -7.0464 N   0  0  0  0  0  0  0  0  0  0  0  0
   -2.7612    0.1608   -1.7721 H   0  0  0  0  0  0  0  0  0  0  0  0
   -2.8540    1.0782   -3.6862 N   0  0  0  0  0  0  0  0  0  0  0  0
   -0.1432   -5.0974    3.5218 H   0  0  0  0  0  0  0  0  0  0  0  0
   -1.4401    2.6273   -4.9683 C   0  0  0  0  0  0  0  0  0  0  0  0
   -0.7451   -0.2520    0.7497 C   0  0  0  0  0  0  0  0  0  0  0  0
   -0.1252   -2.2504    3.7006 C   0  0  0  0  0  0  0  0  0  0  0  0
    0.7041   -2.6808    4.7239 N   0  0  0  0  0  0  0  0  0  0  0  0
   -0.8709    1.1940   -1.6190 C   0  0  0  0  0  0  0  0  0  0  0  0
    0.4248   -5.1559    4.4371 C   0  0  0  0  0  0  0  0  0  0  0  0
   -2.2669    2.7899  -13.5236 H   0  0  0  0  0  0  0  0  0  0  0  0
  1 10  4  0  0  0  0
  1 25  2  0  0  0  0
  1 35  4  0  0  0  0
  2 16  4  0  0  0  0
  2 27  1  0  0  0  0
  2 51  4  0  0  0  0
  3 21  1  0  0  0  0
  3 37  2  0  0  0  0
  3 74  1  0  0  0  0
  4  6  1  0  0  0  0
  4 14  2  0  0  0  0
  4 69  1  0  0  0  0
  5 25  4  0  0  0  0
  5 56  4  0  0  0  0
  5 66  1  0  0  0  0
  7 13  1  0  0  0  0
  8 71  1  0  0  0  0
  9 14  1  0  0  0  0
 10 41  4  0  0  0  0
 11 30  4  0  0  0  0
 11 45  1  0  0  0  0
 11 47  4  0  0  0  0
 12 16  4  0  0  0  0
 12 26  1  0  0  0  0
 12 39  4  0  0  0  0
 13 31  4  0  0  0  0
 13 71  4  0  0  0  0
 14 35  1  0  0  0  0
 15 44  4  0  0  0  0
 15 79  4  0  0  0  0
 15 81  4  0  0  0  0
 16 47  1  0  0  0  0
 17 56  1  0  0  0  0
 18 55  1  0  0  0  0
 19 28  1  0  0  0  0
 20 34  1  0  0  0  0
 22 25  4  0  0  0  0
 22 49  4  0  0  0  0
 22 69  2  0  0  0  0
 23 36  1  0  0  0  0
 23 43  1  0  0  0  0
 23 80  1  0  0  0  0
 24 28  4  0  0  0  0
 24 55  4  0  0  0  0
 24 59  1  0  0  0  0
 28 81  4  0  0  0  0
 29 39  4  0  0  0  0
 29 51  4  0  0  0  0
 29 79  4  0  0  0  0
 30 48  4  0  0  0  0
 30 64  1  0  0  0  0
 31 65  4  0  0  0  0
 31 77  1  0  0  0  0
 32 38  1  0  0  0  0
 32 46  4  0  0  0  0
 32 77  4  0  0  0  0
 33 38  3  0  0  0  0
 34 49  4  0  0  0  0
 34 56  4  0  0  0  0
 35 72  4  0  0  0  0
 37 41  1  0  0  0  0
 37 68  1  0  0  0  0
 39 44  4  0  0  0  0
 40 42  4  0  0  0  0
 40 77  4  0  0  0  0
 41 61  4  0  0  0  0
 42 73  1  0  0  0  0
 42 80  4  0  0  0  0
 43 74  2  0  0  0  0
 43 76  1  0  0  0  0
 44 55  4  0  0  0  0
 46 63  1  0  0  0  0
 46 80  4  0  0  0  0
 47 70  4  0  0  0  0
 48 53  1  0  0  0  0
 48 62  4  0  0  0  0
 49 82  1  0  0  0  0
 50 51  1  0  0  0  0
 52 70  1  0  0  0  0
 53 54  1  0  0  0  0
 53 58  2  0  0  0  0
 57 69  1  0  0  0  0
 60 76  1  0  0  0  0
 61 72  4  0  0  0  0
 61 76  2  0  0  0  0
 62 70  4  0  0  0  0
 65 67  1  0  0  0  0
 65 78  4  0  0  0  0
 71 78  4  0  0  0  0
 75 81  1  0  0  0  0
 78 79  1  0  0  0  0
M  END
$$$$

 Bond Distances (Angstroems)
 ---------------------------
C1-N10=1.3110        C1-C25=1.4443        C1-C35=1.4516        C2-C16=1.4029        C2-H27=1.0793        C2-C51=1.3801        
C3-H21=1.0875        C3-C37=1.3889        C3-N74=1.3074        C4-H6=1.0835         C4-C14=1.3967        C4-C69=1.3674        
C5-C25=1.4051        C5-C56=1.3717        C5-H66=1.0795        H6-C4=1.0835         H7-C13=1.0702        H8-C71=1.0712        
H9-C14=1.0818        N10-C1=1.3110        N10-C41=1.3302       C11-C30=1.3804       C11-H45=1.0806       C11-C47=1.3965       
C12-C16=1.3911       C12-H26=1.0793       C12-C39=1.3836       C13-H7=1.0702        C13-C31=1.3879       C13-C71=1.3950       
C14-C4=1.3967        C14-H9=1.0818        C14-C35=1.3820       C15-C44=1.4109       C15-N79=1.3868       C15-C81=1.3864       
C16-C2=1.4029        C16-C12=1.3911       C16-C47=1.4637       H17-C56=1.0795       H18-C55=1.0792       H19-C28=1.0798       
H20-C34=1.0800       H21-C3=1.0875        C22-C25=1.4168       C22-C49=1.4125       C22-C69=1.4243       N23-H36=1.0122       
N23-C43=1.3769       N23-C80=1.3797       C24-C28=1.3932       C24-C55=1.3805       C24-H59=1.0795       C25-C1=1.4443        
C25-C5=1.4051        C25-C22=1.4168       H26-C12=1.0793       H27-C2=1.0793        C28-H19=1.0798       C28-C24=1.3932       
C28-C81=1.3820       C29-C39=1.4149       C29-C51=1.3882       C29-N79=1.3817       C30-C11=1.3804       C30-C48=1.3959       
C30-H64=1.0791       C31-C13=1.3879       C31-N65=1.3727       C31-C77=1.4361       C32-C38=1.4054       C32-C46=1.3936       
C32-C77=1.4169       N33-C38=1.1500       C34-H20=1.0800       C34-C49=1.3701       C34-C56=1.3954       C35-C1=1.4516        
C35-C14=1.3820       C35-N72=1.3474       H36-N23=1.0122       C37-C3=1.3889        C37-C41=1.3924       C37-H68=1.0814       
C38-C32=1.4054       C38-N33=1.1500       C39-C12=1.3836       C39-C29=1.4149       C39-C44=1.4369       N40-C42=1.3072       
N40-C77=1.3360       C41-N10=1.3302       C41-C37=1.3924       C41-C61=1.4635       C42-N40=1.3072       C42-H73=1.0782       
C42-C80=1.4075       C43-N23=1.3769       C43-N74=1.3368       C43-C76=1.3921       C44-C15=1.4109       C44-C39=1.4369       
C44-C55=1.3885       H45-C11=1.0806       C46-C32=1.3936       C46-H63=1.0823       C46-C80=1.3936       C47-C11=1.3965       
C47-C16=1.4637       C47-C70=1.4028       C48-C30=1.3959       C48-C53=1.4710       C48-N62=1.3341       C49-C22=1.4125       
C49-C34=1.3701       C49-H82=1.0808       H50-C51=1.0793       C51-C2=1.3801        C51-C29=1.3882       C51-H50=1.0793       
H52-C70=1.0822       C53-C48=1.4710       C53-H54=1.1043       C53-O58=1.2053       H54-C53=1.1043       C55-H18=1.0792       
C55-C24=1.3805       C55-C44=1.3885       C56-C5=1.3717        C56-H17=1.0795       C56-C34=1.3954       H57-C69=1.0835       
O58-C53=1.2053       H59-C24=1.0795       H60-C76=1.0829       C61-C41=1.4635       C61-N72=1.3140       C61-C76=1.4046       
N62-C48=1.3341       N62-C70=1.3120       H63-C46=1.0823       H64-C30=1.0791       N65-C31=1.3727       N65-H67=1.0081       
N65-C78=1.3589       H66-C5=1.0795        H67-N65=1.0081       H68-C37=1.0814       C69-C4=1.3674        C69-C22=1.4243       
C69-H57=1.0835       C70-C47=1.4028       C70-H52=1.0822       C70-N62=1.3120       C71-H8=1.0712        C71-C13=1.3950       
C71-C78=1.3823       N72-C35=1.3474       N72-C61=1.3140       H73-C42=1.0782       N74-C3=1.3074        N74-C43=1.3368       
H75-C81=1.0788       C76-C43=1.3921       C76-H60=1.0829       C76-C61=1.4046       C77-C31=1.4361       C77-C32=1.4169       
C77-N40=1.3360       C78-N65=1.3589       C78-C71=1.3823       C78-N79=1.3857       N79-C15=1.3868       N79-C29=1.3817       
N79-C78=1.3857       C80-N23=1.3797       C80-C42=1.4075       C80-C46=1.3936       C81-C15=1.3864       C81-C28=1.3820       
C81-H75=1.0788       H82-C49=1.0808       
 C  H  Rav=1.0810 sigma=0.0059  Rmin=1.0702  Rmax=1.1043    25
 C  C  Rav=1.4033 sigma=0.0250  Rmin=1.3674  Rmax=1.4710    45
 N  H  Rav=1.0101 sigma=0.0021  Rmin=1.0081  Rmax=1.0122     2
 N  C  Rav=1.3349 sigma=0.0531  Rmin=1.1500  Rmax=1.3868    18
 O  C  Rav=1.2053 sigma=0.0000  Rmin=1.2053  Rmax=1.2053     1

 selected bond angles (degree)
 --------------------
C25-C1-N10=117.29              C35-C1-N10=116.69              C35-C1-C25=125.90              H27-C2-C16=118.97              
C51-C2-C16=122.04              C51-C2-H27=118.97              C37-C3-H21=116.29              N74-C3-H21=112.11              
N74-C3-C37=131.41              C14-C4-H6=115.00               C69-C4-H6=115.81               C69-C4-C14=129.09              
C56-C5-C25=122.05              H66-C5-C25=117.51              H66-C5-C56=120.45              C41-N10-C1=122.94              

 selected dihedral angles (degree)
 ---------------------------------
C41-N10-C1-C25=165.76         C41-N10-C1-C35=349.50         
           -------------------------------------------------
          |                Final Singlepoint                |
           -------------------------------------------------

          ...................................................
          :                      SETUP                      :
          :.................................................:
          :  # basis functions                 247          :
          :  # atomic orbitals                 247          :
          :  # shells                          137          :
          :  # electrons                       258          :
          :  max. iterations                   250          :
          :  Hamiltonian                  GFN2-xTB          :
          :  restarted?                      false          :
          :  GBSA solvation                  false          :
          :  PC potential                    false          :
          :  electronic temp.          300.0000000     K    :
          :  accuracy                    1.0000000          :
          :  -> integral cutoff          0.2500000E+02      :
          :  -> integral neglect         0.1000000E-07      :
          :  -> SCF convergence          0.1000000E-05 Eh   :
          :  -> wf. convergence          0.1000000E-03 e    :
          :  Broyden damping             0.4000000          :
          :  net charge                          0          :
          :  unpaired electrons                  0          :
          ...................................................

 iter      E             dE          RMSdq      gap      omega  full diag
   1   -142.9086502 -0.142909E+03  0.100E-04    1.16       0.0  T
   2   -142.9086502 -0.137788E-09  0.849E-05    1.16     130.0  T
   3   -142.9086502 -0.634287E-09  0.263E-05    1.16     420.0  T

   *** convergence criteria satisfied after 3 iterations ***

         #    Occupation            Energy/Eh            Energy/eV
      -------------------------------------------------------------
         1        2.0000           -0.7093353             -19.3020
       ...           ...                  ...                  ...
       123        2.0000           -0.3864555             -10.5160
       124        2.0000           -0.3845731             -10.4648
       125        2.0000           -0.3767086             -10.2508
       126        2.0000           -0.3750721             -10.2062
       127        2.0000           -0.3661970              -9.9647
       128        2.0000           -0.3614474              -9.8355
       129        2.0000           -0.3552420              -9.6666 (HOMO)
       130                         -0.3126164              -8.5067 (LUMO)
       131                         -0.2977243              -8.1015
       132                         -0.2947336              -8.0201
       133                         -0.2856013              -7.7716
       134                         -0.2688039              -7.3145
       ...                                ...                  ...
       247                          1.1501613              31.2975
      -------------------------------------------------------------
                  HL-Gap            0.0426256 Eh            1.1599 eV
             Fermi-level           -0.3339285 Eh           -9.0867 eV

 SCC (total)                   0 d,  0 h,  0 min,  0.094 sec
 SCC setup                      ...        0 min,  0.001 sec (  0.687%)
 Dispersion                     ...        0 min,  0.001 sec (  1.452%)
 classical contributions        ...        0 min,  0.000 sec (  0.349%)
 integral evaluation            ...        0 min,  0.014 sec ( 15.010%)
 iterations                     ...        0 min,  0.022 sec ( 23.914%)
 molecular gradient             ...        0 min,  0.054 sec ( 57.833%)
 printout                       ...        0 min,  0.001 sec (  0.742%)

         :::::::::::::::::::::::::::::::::::::::::::::::::::::
         ::                     SUMMARY                     ::
         :::::::::::::::::::::::::::::::::::::::::::::::::::::
         :: total energy            -140.456422791456 Eh    ::
         :: gradient norm              0.002519375124 Eh/a0 ::
         :: HOMO-LUMO gap              1.159901784427 eV    ::
         ::.................................................::
         :: SCC energy              -142.910224730138 Eh    ::
         :: -> isotropic ES            0.082279696602 Eh    ::
         :: -> anisotropic ES          0.010871688329 Eh    ::
         :: -> anisotropic XC          0.098923466091 Eh    ::
         :: -> dispersion             -0.112157107807 Eh    ::
         :: repulsion energy           2.453801938681 Eh    ::
         :: add. restraining           0.000000000000 Eh    ::
         :: total charge               0.000000000000 e     ::
         :::::::::::::::::::::::::::::::::::::::::::::::::::::

           -------------------------------------------------
          |                Property Printout                |
           -------------------------------------------------

    * Orbital Energies and Occupations

         #    Occupation            Energy/Eh            Energy/eV
      -------------------------------------------------------------
         1        2.0000           -0.7093353             -19.3020
       ...           ...                  ...                  ...
       117        2.0000           -0.4140059             -11.2657
       118        2.0000           -0.4106947             -11.1756
       119        2.0000           -0.4079121             -11.0999
       120        2.0000           -0.4039465             -10.9919
       121        2.0000           -0.4002466             -10.8913
       122        2.0000           -0.3899318             -10.6106
       123        2.0000           -0.3864555             -10.5160
       124        2.0000           -0.3845731             -10.4648
       125        2.0000           -0.3767086             -10.2508
       126        2.0000           -0.3750721             -10.2062
       127        2.0000           -0.3661970              -9.9647
       128        2.0000           -0.3614474              -9.8355
       129        2.0000           -0.3552420              -9.6666 (HOMO)
       130                         -0.3126164              -8.5067 (LUMO)
       131                         -0.2977243              -8.1015
       132                         -0.2947336              -8.0201
       133                         -0.2856013              -7.7716
       134                         -0.2688039              -7.3145
       135                         -0.2601619              -7.0794
       136                         -0.2555369              -6.9535
       137                         -0.2524586              -6.8697
       138                         -0.2485148              -6.7624
       139                         -0.2384818              -6.4894
       140                         -0.2226168              -6.0577
       ...                                ...                  ...
       247                          1.1501613              31.2975
      -------------------------------------------------------------
                  HL-Gap            0.0426256 Eh            1.1599 eV
             Fermi-level           -0.3339285 Eh           -9.0867 eV

     #   Z          covCN         q      C6AA      α(0)
     1   6 C        2.941     0.097    25.859     8.340
     2   6 C        2.928    -0.035    28.862     8.810
     3   6 C        2.842     0.073    26.356     8.414
     4   6 C        2.893    -0.024    28.592     8.767
     5   6 C        2.930    -0.024    28.610     8.772
     6   1 H        0.925     0.041     2.440     2.442
     7   1 H        0.927     0.060     2.200     2.319
     8   1 H        0.926     0.043     2.415     2.430
     9   1 H        0.925     0.053     2.278     2.360
    10   7 N        1.868    -0.234    26.985     7.700
    11   6 C        2.930    -0.017    28.446     8.747
    12   6 C        2.919    -0.035    28.867     8.811
    13   6 C        3.056    -0.054    29.282     8.874
    14   6 C        2.907    -0.044    29.098     8.845
    15   6 C        3.077     0.048    26.851     8.495
    16   6 C        2.976    -0.002    28.065     8.690
    17   1 H        0.926     0.039     2.461     2.453
    18   1 H        0.926     0.035     2.519     2.482
    19   1 H        0.926     0.035     2.513     2.479
    20   1 H        0.926     0.038     2.469     2.457
    21   1 H        0.925     0.046     2.375     2.410
    22   6 C        2.965     0.022    27.501     8.602
    23   7 N        2.715    -0.133    23.891     7.259
    24   6 C        2.920    -0.038    28.951     8.823
    25   6 C        2.979     0.007    27.866     8.659
    26   1 H        0.926     0.038     2.475     2.460
    27   1 H        0.926     0.040     2.446     2.446
    28   6 C        2.925    -0.031    28.770     8.796
    29   6 C        3.067     0.048    26.867     8.499
    30   6 C        2.914    -0.026    28.645     8.776
    31   6 C        3.091     0.026    27.317     8.567
    32   6 C        2.965    -0.008    28.224     8.714
    33   7 N        0.911    -0.260    26.751     7.480
    34   6 C        2.915    -0.024    28.592     8.768
    35   6 C        2.925     0.086    26.093     8.377
    36   1 H        0.860     0.176     1.237     1.742
    37   6 C        2.903    -0.070    29.751     8.944
    38   6 C        1.911     0.111    28.360     8.601
    39   6 C        3.068    -0.014    28.283     8.720
    40   7 N        1.851    -0.218    26.597     7.644
    41   6 C        2.931     0.096    25.869     8.341
    42   6 C        2.892     0.046    26.969     8.514
    43   6 C        2.828     0.157    24.591     8.126
    44   6 C        3.065    -0.015    28.313     8.725
    45   1 H        0.926     0.044     2.396     2.420
    46   6 C        2.942    -0.035    28.872     8.813
    47   6 C        2.973     0.011    27.765     8.643
    48   6 C        2.960     0.067    26.495     8.443
    49   6 C        2.933    -0.035    28.864     8.811
    50   1 H        0.926     0.035     2.515     2.480
    51   6 C        2.908    -0.048    29.190     8.859
    52   1 H        0.925     0.046     2.372     2.408
    53   6 C        2.768     0.203    23.689     7.971
    54   1 H        0.923     0.035     2.514     2.480
    55   6 C        2.913    -0.031    28.782     8.797
    56   6 C        2.916    -0.027    28.684     8.783
    57   1 H        0.925     0.040     2.454     2.450
    58   8 O        0.856    -0.329    20.322     6.044
    59   1 H        0.926     0.034     2.535     2.490
    60   1 H        0.925     0.044     2.396     2.420
    61   6 C        2.923     0.101    25.763     8.324
    62   7 N        1.842    -0.219    26.613     7.645
    63   1 H        0.925     0.033     2.541     2.493
    64   1 H        0.926     0.062     2.171     2.304
    65   7 N        2.800    -0.108    23.369     7.180
    66   1 H        0.926     0.054     2.276     2.359
    67   1 H        0.860     0.181     1.206     1.720
    68   1 H        0.925     0.050     2.322     2.383
    69   6 C        2.907    -0.040    28.991     8.829
    70   6 C        2.911     0.058    26.709     8.474
    71   6 C        3.037    -0.076    29.855     8.962
    72   7 N        1.870    -0.263    27.695     7.801
    73   1 H        0.926     0.083     1.944     2.180
    74   7 N        1.837    -0.253    27.439     7.763
    75   1 H        0.926     0.036     2.500     2.472
    76   6 C        2.918    -0.095    30.379     9.038
    77   6 C        2.945     0.084    26.118     8.382
    78   6 C        3.034     0.098    25.803     8.332
    79   7 N        2.796    -0.044    22.081     6.979
    80   6 C        2.894     0.061    26.623     8.460
    81   6 C        2.910    -0.049    29.212     8.863
    82   1 H        0.926     0.038     2.479     2.462

 Mol. C6AA /au·bohr⁶  :     107587.067671
 Mol. C8AA /au·bohr⁸  :    2727031.893425
 Mol. α(0) /au        :        526.399175


Wiberg/Mayer (AO) data.
largest (>0.10) Wiberg bond orders for each atom

 ---------------------------------------------------------------------------
     #   Z sym  total        # sym  WBO       # sym  WBO       # sym  WBO
 ---------------------------------------------------------------------------
     1   6 C    3.957 --    10 N    1.481    25 C    1.128    35 C    1.088
     2   6 C    3.965 --    51 C    1.482    16 C    1.341    27 H    0.968
     3   6 C    3.966 --    74 N    1.469    37 C    1.375    21 H    0.957
     4   6 C    3.986 --    69 C    1.535    14 C    1.334     6 H    0.967
     5   6 C    3.987 --    56 C    1.505    25 C    1.335    66 H    0.964
                            49 C    0.107
     6   1 H    0.997 --     4 C    0.967
     7   1 H    0.996 --    13 C    0.971
     8   1 H    0.998 --    71 C    0.972
     9   1 H    0.996 --    14 C    0.963
    10   7 N    3.204 --     1 C    1.481    41 C    1.348
    11   6 C    3.986 --    30 C    1.465    47 C    1.382    45 H    0.966
    12   6 C    3.975 --    16 C    1.402    39 C    1.387    26 H    0.965
    13   6 C    3.973 --    31 C    1.419    71 C    1.393     7 H    0.971
    14   6 C    3.945 --    35 C    1.391     4 C    1.334     9 H    0.963
    15   6 C    3.955 --    81 C    1.364    44 C    1.271    79 N    1.104
    16   6 C    3.974 --    12 C    1.402     2 C    1.341    47 C    1.065
    17   1 H    0.997 --    56 C    0.970
    18   1 H    0.998 --    55 C    0.969
    19   1 H    0.998 --    28 C    0.971
    20   1 H    0.998 --    34 C    0.970
    21   1 H    0.997 --     3 C    0.957
    22   6 C    3.983 --    49 C    1.300    25 C    1.270    69 C    1.222
    23   7 N    3.483 --    43 C    1.153    80 C    1.125    36 H    0.932
    24   6 C    3.979 --    55 C    1.473    28 C    1.398    59 H    0.971
    25   6 C    3.961 --     5 C    1.335    22 C    1.270     1 C    1.128
    26   1 H    0.998 --    12 C    0.965
    27   1 H    0.998 --     2 C    0.968
    28   6 C    3.969 --    81 C    1.467    24 C    1.398    19 H    0.971
    29   6 C    3.951 --    51 C    1.354    39 C    1.253    79 N    1.122
    30   6 C    3.987 --    11 C    1.465    48 C    1.364    64 H    0.965
    31   6 C    3.933 --    13 C    1.419    65 N    1.172    77 C    1.136
                            78 C    0.101
    32   6 C    3.981 --    46 C    1.379    77 C    1.250    38 C    1.116
    33   7 N    2.994 --    38 C    2.756
    34   6 C    3.976 --    49 C    1.522    56 C    1.353    20 H    0.970
    35   6 C    3.974 --    14 C    1.391    72 N    1.275     1 C    1.088
    36   1 H    0.969 --    23 N    0.932
    37   6 C    3.938 --     3 C    1.375    41 C    1.336    68 H    0.962
    38   6 C    3.945 --    33 N    2.756    32 C    1.116
    39   6 C    3.980 --    12 C    1.387    29 C    1.253    44 C    1.138
    40   7 N    3.082 --    42 C    1.505    77 C    1.340
    41   6 C    3.963 --    10 N    1.348    37 C    1.336    61 C    1.049
    42   6 C    3.967 --    40 N    1.505    80 C    1.285    73 H    0.946
    43   6 C    3.947 --    76 C    1.355    74 N    1.282    23 N    1.153
    44   6 C    3.979 --    55 C    1.366    15 C    1.271    39 C    1.138
    45   1 H    0.998 --    11 C    0.966
    46   6 C    3.978 --    32 C    1.379    80 C    1.368    63 H    0.966
    47   6 C    3.984 --    11 C    1.382    70 C    1.337    16 C    1.065
    48   6 C    3.974 --    30 C    1.364    62 N    1.362    53 C    1.042
    49   6 C    3.973 --    34 C    1.522    22 C    1.300    82 H    0.967
                             5 C    0.107
    50   1 H    0.998 --    51 C    0.966
    51   6 C    3.984 --     2 C    1.482    29 C    1.354    50 H    0.966
    52   1 H    0.997 --    70 C    0.960
    53   6 C    3.915 --    58 O    1.877    48 C    1.042    54 H    0.932
    54   1 H    0.998 --    53 C    0.932
    55   6 C    3.981 --    24 C    1.473    44 C    1.366    18 H    0.969
                            81 C    0.108
    56   6 C    3.964 --     5 C    1.505    34 C    1.353    17 H    0.970
    57   1 H    0.998 --    69 C    0.965
    58   8 O    2.073 --    53 C    1.877
    59   1 H    0.998 --    24 C    0.971
    60   1 H    0.997 --    76 C    0.957
    61   6 C    3.956 --    72 N    1.441    76 C    1.279    41 C    1.049
    62   7 N    3.069 --    70 C    1.492    48 C    1.362
    63   1 H    0.998 --    46 C    0.966
    64   1 H    0.996 --    30 C    0.965
    65   7 N    3.559 --    78 C    1.222    31 C    1.172    67 H    0.923
    66   1 H    0.997 --     5 C    0.964
    67   1 H    0.967 --    65 N    0.923
    68   1 H    0.997 --    37 C    0.962
    69   6 C    3.893 --     4 C    1.535    22 C    1.222    57 H    0.965
    70   6 C    3.977 --    62 N    1.492    47 C    1.337    52 H    0.960
    71   6 C    3.963 --    78 C    1.427    13 C    1.393     8 H    0.972
    72   7 N    3.148 --    61 C    1.441    35 C    1.275
    73   1 H    0.992 --    42 C    0.946
    74   7 N    3.044 --     3 C    1.469    43 C    1.282
    75   1 H    0.998 --    81 C    0.966
    76   6 C    3.907 --    43 C    1.355    61 C    1.279    60 H    0.957
    77   6 C    3.965 --    40 N    1.340    32 C    1.250    31 C    1.136
    78   6 C    3.918 --    71 C    1.427    65 N    1.222    79 N    1.056
                            31 C    0.101
    79   7 N    3.564 --    29 C    1.122    15 C    1.104    78 C    1.056
    80   6 C    3.946 --    46 C    1.368    42 C    1.285    23 N    1.125
    81   6 C    3.984 --    28 C    1.467    15 C    1.364    75 H    0.966
                            55 C    0.108
    82   1 H    0.998 --    49 C    0.967
 ---------------------------------------------------------------------------

Topologies differ in bond orders
Writing corrected topology to xtbtopo.sdf

molecular dipole:
                 x           y           z       tot (Debye)
 q only:       -1.331      -0.821      -3.040
   full:       -1.182      -0.464      -4.124      10.968
molecular quadrupole (traceless):
                xx          xy          yy          xz          yz          zz
 q only:       -9.634      -9.730      30.850     -45.734     -28.893     -21.216
  q+dip:      -17.036     -14.021      39.094     -43.464     -40.537     -22.058
   full:      -11.215     -16.030      36.530     -50.496     -40.149     -25.315

           -------------------------------------------------
          |                Geometry Summary                 |
           -------------------------------------------------

      molecular mass/u    :      709.7572496
   center of mass at/Å    :        0.0542192       0.0948248       0.1944567
  moments of inertia/u·Å² :        0.4241387E+04   0.4571378E+05   0.4852149E+05
rotational constants/cm⁻¹ :        0.3974557E-02   0.3687647E-03   0.3474261E-03

 * 84 selected distances

     #   Z          #   Z                                           value/Å
     4   6 C        6   1 H                                       1.0835125
     1   6 C       10   7 N                                       1.3110020
     7   1 H       13   6 C                                       1.0701614
     4   6 C       14   6 C                                       1.3966844
     9   1 H       14   6 C                                       1.0817719
     2   6 C       16   6 C                                       1.4028556
    12   6 C       16   6 C                                       1.3911160
     3   6 C       21   1 H                                       1.0875472
     5   6 C       25   6 C                                       1.4051123
    22   6 C       25   6 C                                       1.4168095
    12   6 C       26   1 H                                       1.0793069
     2   6 C       27   1 H                                       1.0793053
    19   1 H       28   6 C                                       1.0797659
    24   6 C       28   6 C                                       1.3931623
    11   6 C       30   6 C                                       1.3803665
    13   6 C       31   6 C                                       1.3879315
    20   1 H       34   6 C                                       1.0800090
    14   6 C       35   6 C                                       1.3820470
    23   7 N       36   1 H                                       1.0121654
     3   6 C       37   6 C                                       1.3889101
    33   7 N       38   6 C                                       1.1499968
    12   6 C       39   6 C                                       1.3835973
    29   6 C       39   6 C                                       1.4149207
    10   7 N       41   6 C                                       1.3302447
    37   6 C       41   6 C                                       1.3923924
    40   7 N       42   6 C                                       1.3072255
    23   7 N       43   6 C                                       1.3768859
    15   6 C       44   6 C                                       1.4109334
    39   6 C       44   6 C                                       1.4368534 (max)
    11   6 C       45   1 H                                       1.0805911
    32   6 C       46   6 C                                       1.3935744
    11   6 C       47   6 C                                       1.3965452
    30   6 C       48   6 C                                       1.3958613
    22   6 C       49   6 C                                       1.4125387
    34   6 C       49   6 C                                       1.3701212
     2   6 C       51   6 C                                       1.3801101
    29   6 C       51   6 C                                       1.3881654
    50   1 H       51   6 C                                       1.0792931
    18   1 H       55   6 C                                       1.0792180
    24   6 C       55   6 C                                       1.3804549
    44   6 C       55   6 C                                       1.3884635
     5   6 C       56   6 C                                       1.3716730
    17   1 H       56   6 C                                       1.0794960
    34   6 C       56   6 C                                       1.3953684
    53   6 C       58   8 O                                       1.2053430
    24   6 C       59   1 H                                       1.0795038
    48   6 C       62   7 N                                       1.3340830
    46   6 C       63   1 H                                       1.0823433
    30   6 C       64   1 H                                       1.0791040
    31   6 C       65   7 N                                       1.3726791
     5   6 C       66   1 H                                       1.0795076
    65   7 N       67   1 H                                       1.0080540 (min)
    37   6 C       68   1 H                                       1.0814443
     4   6 C       69   6 C                                       1.3674243
    22   6 C       69   6 C                                       1.4243424
    57   1 H       69   6 C                                       1.0834799
    47   6 C       70   6 C                                       1.4027801
    52   1 H       70   6 C                                       1.0822319
    62   7 N       70   6 C                                       1.3119747
     8   1 H       71   6 C                                       1.0712117
    13   6 C       71   6 C                                       1.3949633
    35   6 C       72   7 N                                       1.3473790
    61   6 C       72   7 N                                       1.3139938
    42   6 C       73   1 H                                       1.0781587
Note: The following floating-point exceptions are signalling: IEEE_UNDERFLOW_FLAG IEEE_DENORMAL
normal termination of xtb
     3   6 C       74   7 N                                       1.3074345
    43   6 C       74   7 N                                       1.3367518
    43   6 C       76   6 C                                       1.3920606
    60   1 H       76   6 C                                       1.0829190
    61   6 C       76   6 C                                       1.4046367
    31   6 C       77   6 C                                       1.4360626
    32   6 C       77   6 C                                       1.4168621
    40   7 N       77   6 C                                       1.3360277
    65   7 N       78   6 C                                       1.3588849
    71   6 C       78   6 C                                       1.3822543
    15   6 C       79   7 N                                       1.3867618
    29   6 C       79   7 N                                       1.3816732
    78   6 C       79   7 N                                       1.3857260
    23   7 N       80   6 C                                       1.3797500
    42   6 C       80   6 C                                       1.4074685
    46   6 C       80   6 C                                       1.3936401
    15   6 C       81   6 C                                       1.3863623
    28   6 C       81   6 C                                       1.3819959
    75   1 H       81   6 C                                       1.0787667
    49   6 C       82   1 H                                       1.0807972

 * 5 distinct bonds (by element types)

   Z      Z             #   av. dist./Å        max./Å        min./Å
   1 H    6 C          24     1.0799769     1.0875472     1.0701614
   6 C    6 C          39     1.3960877     1.4368534     1.3674243
   1 H    7 N           2     1.0101097     1.0121654     1.0080540
   6 C    7 N          18     1.3349152     1.3867618     1.1499968
   6 C    8 O           1     1.2053430     1.2053430     1.2053430


optimized geometry written to: xtbopt.sdf


           -------------------------------------------------
          | TOTAL ENERGY             -140.456422791456 Eh   |
          | GRADIENT NORM               0.002519375124 Eh/α |
          | HOMO-LUMO GAP               1.159901784427 eV   |
           -------------------------------------------------

------------------------------------------------------------------------
 * finished run on 2026/08/25 at 07:10:07.577     
------------------------------------------------------------------------
 total:
 * wall-time:     0 d,  0 h,  0 min,  9.234 sec
 *  cpu-time:     0 d,  0 h,  0 min,  9.207 sec
 * ratio c/w:     0.997 speedup
 SCF:
 * wall-time:     0 d,  0 h,  0 min,  0.205 sec
 *  cpu-time:     0 d,  0 h,  0 min,  0.205 sec
 * ratio c/w:     1.000 speedup
 ANC optimizer:
 * wall-time:     0 d,  0 h,  0 min,  8.996 sec
 *  cpu-time:     0 d,  0 h,  0 min,  8.979 sec
 * ratio c/w:     0.998 speedup

