      -----------------------------------------------------------      
     |                   =====================                   |     
     |                           x T B                           |     
     |                   =====================                   |     
     |                         S. Grimme                         |     
     |          Mulliken Center for Theoretical Chemistry        |     
     |                    University of Bonn                     |     
      -----------------------------------------------------------      

   * xtb version 6.7.1 (edcfbbe) compiled by 'conda@5dfe00f5fb80' on 2026-06-10

   xtb is free software: you can redistribute it and/or modify it under
   the terms of the GNU Lesser General Public License as published by
   the Free Software Foundation, either version 3 of the License, or
   (at your option) any later version.
   
   xtb is distributed in the hope that it will be useful,
   but WITHOUT ANY WARRANTY; without even the implied warranty of
   MERCHANTABILITY or FITNESS FOR A PARTICULAR PURPOSE.  See the
   GNU Lesser General Public License for more details.
   
   Cite this work as:
   * C. Bannwarth, E. Caldeweyher, S. Ehlert, A. Hansen, P. Pracht,
     J. Seibert, S. Spicher, S. Grimme, WIREs Comput. Mol. Sci., 2020, 11,
     e01493. DOI: 10.1002/wcms.1493
   
   for GFN2-xTB:
   * C. Bannwarth, S. Ehlert and S. Grimme., J. Chem. Theory Comput., 2019,
     15, 1652-1671. DOI: 10.1021/acs.jctc.8b01176
   for GFN1-xTB:
   * S. Grimme, C. Bannwarth, P. Shushkov, J. Chem. Theory Comput., 2017,
     13, 1989-2009. DOI: 10.1021/acs.jctc.7b00118
   for GFN0-xTB:
   * P. Pracht, E. Caldeweyher, S. Ehlert, S. Grimme, ChemRxiv, 2019, preprint.
     DOI: 10.26434/chemrxiv.8326202.v1
   for GFN-FF:
   * S. Spicher and S. Grimme, Angew. Chem. Int. Ed., 2020, 59, 15665-15673.
     DOI: 10.1002/anie.202004239
   
   for ALPB and GBSA implicit solvation:
   * S. Ehlert, M. Stahn, S. Spicher, S. Grimme, J. Chem. Theory Comput.,
     2021, 17, 4250-4261. DOI: 10.1021/acs.jctc.1c00471
   
   for ddCOSMO and CPCM-X implicit solvation:
   * M. Stahn, S. Ehlert, S. Grimme, J. Phys. Chem. A,
     2023, XX, XXXX-XXXX. DOI: 10.1021/acs.jpca.3c04382
   
   for DFT-D4:
   * E. Caldeweyher, C. Bannwarth and S. Grimme, J. Chem. Phys., 2017,
     147, 034112. DOI: 10.1063/1.4993215
   * E. Caldeweyher, S. Ehlert, A. Hansen, H. Neugebauer, S. Spicher,
     C. Bannwarth and S. Grimme, J. Chem. Phys., 2019, 150, 154122.
     DOI: 10.1063/1.5090222
   * E. Caldeweyher, J.-M. Mewes, S. Ehlert and S. Grimme, Phys. Chem. Chem. Phys.
     2020, 22, 8499-8512. DOI: 10.1039/D0CP00502A
   
   for sTDA-xTB:
   * S. Grimme and C. Bannwarth, J. Chem. Phys., 2016, 145, 054103.
     DOI: 10.1063/1.4959605
   
   in the mass-spec context:
   * V. Asgeirsson, C. Bauer and S. Grimme, Chem. Sci., 2017, 8, 4879.
     DOI: 10.1039/c7sc00601b
   * J. Koopman and S. Grimme, ACS Omega 2019, 4, 12, 15120-15133.
     DOI: 10.1021/acsomega.9b02011
   
   for metadynamics refer to:
   * S. Grimme, J. Chem. Theory Comput., 2019, 155, 2847-2862
     DOI: 10.1021/acs.jctc.9b00143
   
   for SPH calculations refer to:
   * S. Spicher and S. Grimme, J. Chem. Theory Comput., 2021, 17, 1701-1714
     DOI: 10.1021/acs.jctc.0c01306
   
   for ONIOM refer to:
   * C. Plett, A. Katbashev, S. Ehlert, S. Grimme, M. Bursch,
     Phys. Chem. Chem. Phys., 2023, 25, 17860-17868. DOI: 10.1039/D3CP02178E
   
   for DIPRO refer to:
   * J. Kohn, N. Gildemeister, S. Grimme, D. Fazzi, A. Hansen,
     J. Chem. Phys., 2023, just accepted.
   
   for PTB refer to:
   * S. Grimme, M. Mueller, A. Hansen, J. Chem. Phys., 2023, 158, 124111.
     DOI: 10.1063/5.0137838
   
   with help from (in alphabetical order)
   P. Atkinson, C. Bannwarth, F. Bohle, G. Brandenburg, E. Caldeweyher
   M. Checinski, S. Dohm, S. Ehlert, S. Ehrlich, I. Gerasimov, C. Hölzer
   A. Katbashev, J. Kohn, J. Koopman, C. Lavigne, S. Lehtola, F. März, M. Müller,
   F. Musil, H. Neugebauer, J. Pisarek, C. Plett, P. Pracht, F. Pultar,
   J. Seibert, P. Shushkov, S. Spicher, M. Stahn, M. Steiner, T. Strunk,
   J. Stückrath, T. Rose, and J. Unsleber
   
 * started run on 2026/08/20 at 06:25:58.400     
   ID    Z sym.   atoms
    1    6 C      1, 7, 8, 10, 14, 17, 19, 21, 25, 27-30, 32-37, 39, 41, 43,
                  45, 46, 49, 50, 52, 53, 55-58, 61, 62, 65, 67, 68, 70, 71,
                  73, 76, 77, 79, 81, 87-89, 91, 92, 94, 98-101, 104, 106,
                  107, 110
    2    1 H      2-4, 9, 12, 13, 15, 18, 20, 22-24, 26, 40, 42, 44, 47, 48,
                  51, 54, 59, 60, 63, 64, 66, 69, 72, 74, 78, 80, 83, 85, 86,
                  90, 93, 95-97, 102, 103, 105, 108, 109, 111
    3    7 N      5, 6, 11, 31, 38, 75, 82
    4    8 O      16, 84

           -------------------------------------------------
          |                Calculation Setup                |
           -------------------------------------------------

          program call               : xtb 00089.sdf --opt loose --cycles 500
          coordinate file            : 00089.sdf
          omp threads                :                     1


molecular fragmentation (1/2 indicates fragments):
121111112112111112222211222122122211121222112221211221222222121211112211
112112212122122211111222122111112212211
# atoms in fragment 1/2:    57    54
 fragment masses (1/2) :      456.52      414.50
CMA distance (Bohr)    :  21.990
constraining FC (au)   :  0.0500

           -------------------------------------------------
          |                 G F N 2 - x T B                 |
           -------------------------------------------------

        Reference                      10.1021/acs.jctc.8b01176
      * Hamiltonian:
        H0-scaling (s, p, d)           1.850000    2.230000    2.230000
        zeta-weighting                 0.500000
      * Dispersion:
        s8                             2.700000
        a1                             0.520000
        a2                             5.000000
        s9                             5.000000
      * Repulsion:
        kExp                           1.500000    1.000000
        rExp                           1.000000
      * Coulomb:
        alpha                          2.000000
        third order                    shell-resolved
        anisotropic                    true
        a3                             3.000000
        a5                             4.000000
        cn-shift                       1.200000
        cn-exp                         4.000000
        max-rad                        5.000000


          ...................................................
          :                      SETUP                      :
          :.................................................:
          :  # basis functions                 312          :
          :  # atomic orbitals                 312          :
          :  # shells                          178          :
          :  # electrons                       323          :
          :  max. iterations                   250          :
          :  Hamiltonian                  GFN2-xTB          :
          :  restarted?                      false          :
          :  GBSA solvation                  false          :
          :  PC potential                    false          :
          :  electronic temp.          300.0000000     K    :
          :  accuracy                    1.0000000          :
          :  -> integral cutoff          0.2500000E+02      :
          :  -> integral neglect         0.1000000E-07      :
          :  -> SCF convergence          0.1000000E-05 Eh   :
          :  -> wf. convergence          0.1000000E-03 e    :
          :  Broyden damping             0.4000000          :
          :  net charge                          0          :
          :  unpaired electrons                  0          :
          ...................................................

 iter      E             dE          RMSdq      gap      omega  full diag
   1   -175.5230735 -0.175523E+03  0.470E+00    0.32       0.0  T
   2   -169.4632255  0.605985E+01  0.475E+00    0.02       1.0  T
   3   -164.3435064  0.511972E+01  0.524E+00    0.21       1.0  T
   4   -174.4232180 -0.100797E+02  0.280E+00    0.20       1.0  T
   5   -174.6755827 -0.252365E+00  0.248E+00    0.50       1.0  T
   6   -175.6121034 -0.936521E+00  0.133E+00    0.03       1.0  T
   7   -175.8397856 -0.227682E+00  0.134E+00    0.39       1.0  T
   8   -175.8606054 -0.208198E-01  0.114E+00    0.11       1.0  T
   9   -175.9660506 -0.105445E+00  0.979E-01    0.08       1.0  T
  10   -176.1093254 -0.143275E+00  0.611E-01    0.04       1.0  T
  11   -176.0466125  0.627129E-01  0.723E-01    0.03       1.0  T
  12   -176.0014698  0.451427E-01  0.812E-01    0.05       1.0  T
  13   -176.1007189 -0.992491E-01  0.306E-01    0.11       1.0  T
  14   -175.9669450  0.133774E+00  0.840E-01    0.03       1.0  T
  15   -176.0855833 -0.118638E+00  0.431E-01    0.01       1.0  T
  16   -176.1172922 -0.317089E-01  0.224E-01    0.03       1.0  T
  17   -176.1265597 -0.926746E-02  0.792E-02    0.06       1.0  T
  18   -176.1269889 -0.429269E-03  0.483E-02    0.07       1.0  T
  19   -176.1271772 -0.188234E-03  0.224E-02    0.07       1.0  T
  20   -176.1269121  0.265116E-03  0.387E-02    0.08       1.0  T
  21   -176.1271747 -0.262610E-03  0.181E-02    0.08       1.0  T
  22   -176.1272456 -0.708959E-04  0.529E-03    0.07       1.8  T
  23   -176.1272416  0.397537E-05  0.631E-03    0.07       1.5  T
  24   -176.1272459 -0.435201E-05  0.404E-03    0.07       2.4  T
  25   -176.1272493 -0.337091E-05  0.180E-03    0.07       5.3  T
  26   -176.1272498 -0.503649E-06  0.991E-04    0.07       9.6  T
  27   -176.1272500 -0.184450E-06  0.382E-04    0.07      24.9  T

   *** convergence criteria satisfied after 27 iterations ***

         #    Occupation            Energy/Eh            Energy/eV
      -------------------------------------------------------------
         1        2.0000           -0.7420388             -20.1919
       ...           ...                  ...                  ...
       156        2.0000           -0.3674062              -9.9976
       157        2.0000           -0.3622847              -9.8583
       158        2.0000           -0.3516537              -9.5690
       159        2.0000           -0.3421417              -9.3101
       160        2.0000           -0.3362708              -9.1504
       161        1.8728           -0.3202512              -8.7145
       162        0.8512           -0.3163719              -8.6089 (HOMO)
       163        0.1461           -0.3136360              -8.5345 (LUMO)
       164        0.1285           -0.3134966              -8.5307
       165        0.0013           -0.3090462              -8.4096
       166                         -0.2986756              -8.1274
       167                         -0.2773298              -7.5465
       ...                                ...                  ...
       312                          0.7630845              20.7646
      -------------------------------------------------------------
                  HL-Gap            0.0027359 Eh            0.0744 eV
             Fermi-level           -0.3168684 Eh           -8.6224 eV

 SCC (total)                   0 d,  0 h,  0 min,  0.442 sec
 SCC setup                      ...        0 min,  0.001 sec (  0.243%)
 Dispersion                     ...        0 min,  0.004 sec (  0.795%)
 classical contributions        ...        0 min,  0.000 sec (  0.106%)
 integral evaluation            ...        0 min,  0.024 sec (  5.359%)
 iterations                     ...        0 min,  0.311 sec ( 70.245%)
 molecular gradient             ...        0 min,  0.098 sec ( 22.162%)
 printout                       ...        0 min,  0.005 sec (  1.088%)

         :::::::::::::::::::::::::::::::::::::::::::::::::::::
         ::                     SUMMARY                     ::
         :::::::::::::::::::::::::::::::::::::::::::::::::::::
         :: total energy            -174.033544156773 Eh    ::
         :: gradient norm              0.562109182966 Eh/a0 ::
         :: HOMO-LUMO gap              0.074448823777 eV    ::
         ::.................................................::
         :: SCC energy              -176.126720686230 Eh    ::
         :: -> isotropic ES            0.076087888830 Eh    ::
         :: -> anisotropic ES          0.027481515956 Eh    ::
         :: -> anisotropic XC          0.142338829145 Eh    ::
         :: -> dispersion             -0.138711609124 Eh    ::
         :: repulsion energy           2.093176529457 Eh    ::
         :: add. restraining           0.000000000000 Eh    ::
         :: total charge              -0.000000000047 e     ::
         :::::::::::::::::::::::::::::::::::::::::::::::::::::

      ----------------------------------------------------------- 
     |                   =====================                   |
     |                        A N C O P T                        |
     |                   =====================                   |
     |               Approximate Normal Coordinate               |
     |                Rational Function Optimizer                |
      ----------------------------------------------------------- 
      ----------------------------------------------------------- 
     |                   =====================                   |
     |                        A N C O P T                        |
     |                   =====================                   |
     |               Approximate Normal Coordinate               |
     |                Rational Function Optimizer                |
      ----------------------------------------------------------- 

          ...................................................
          :                      SETUP                      :
          :.................................................:
          :   optimization level             loose          :
          :   max. optcycles                   500          :
          :   ANC micro-cycles                  20          :
          :   degrees of freedom               327          :
          :.................................................:
          :   RF solver                   davidson          :
          :   write xtbopt.log                true          :
          :   linear?                        false          :
          :   energy convergence         0.5000000E-04 Eh   :
          :   grad. convergence          0.4000000E-02 Eh/α :
          :   maxmium RF displ.          1.0000000          :
          :   Hlow (freq-cutoff)         0.1000000E-01      :
          :   Hmax (freq-cutoff)         5.0000000          :
          :   S6 in model hess.         20.0000000          :
          ...................................................

generating ANC from exact Hessian ...
Using Lindh-Hessian (1995)
 Shifting diagonal of input Hessian by    1.0070411816565912E-002
 Lowest  eigenvalues of input Hessian
    0.010000    0.010022    0.010052    0.000000    0.000000    0.000000
    0.000000    0.000000    0.000000    0.010079    0.010105    0.010135
    0.010153    0.010172    0.010266    0.010320    0.010354    0.010442
 Highest eigenvalues
    1.939786    1.955613    2.171193    2.227622    2.243921    2.244707


........................................................................
.............................. CYCLE    1 ..............................
........................................................................

 iter      E             dE          RMSdq      gap      omega  full diag
   1   -176.1272500 -0.176127E+03  0.176E-04    0.07       0.0  T
   2   -176.1272483  0.172205E-05  0.244E-03    0.07       3.9  T
   3   -176.1272497 -0.143801E-05  0.104E-03    0.07       9.1  T
   4   -176.1272500 -0.283960E-06  0.180E-04    0.07      52.7  T
   5   -176.1272500 -0.613795E-08  0.117E-04    0.07      81.4  T
     SCC iter.                  ...        0 min,  0.061 sec
     gradient                   ...        0 min,  0.096 sec
 * total energy  :  -174.0335442 Eh     change       -0.2854478E-07 Eh
   gradient norm :     0.5621092 Eh/α   predicted     0.0000000E+00 (-100.00%)
   displ. norm   :     0.6727934 α      lambda       -0.2948075E+00
   maximum displ.:     0.1433070 α      in ANC's #180, #324, #207, ...

........................................................................
.............................. CYCLE    2 ..............................
........................................................................

 iter      E             dE          RMSdq      gap      omega  full diag
   1   -176.4450105 -0.176445E+03  0.419E-01    0.12       0.0  T
   2   -176.3049138  0.140097E+00  0.799E-01    0.04       1.0  T
   3   -176.2207974  0.841164E-01  0.946E-01    0.07       1.0  T
   4   -176.4328024 -0.212005E+00  0.385E-01    0.41       1.0  T
   5   -176.4477204 -0.149180E-01  0.221E-01    0.06       1.0  T
   6   -176.4291645  0.185559E-01  0.334E-01    0.18       1.0  T
   7   -176.4502016 -0.210371E-01  0.158E-01    0.15       1.0  T
   8   -176.4537068 -0.350518E-02  0.931E-02    0.12       1.0  T
   9   -176.4537736 -0.667931E-04  0.843E-02    0.12       1.0  T
  10   -176.4541585 -0.384929E-03  0.561E-02    0.10       1.0  T
  11   -176.4543664 -0.207940E-03  0.372E-02    0.09       1.0  T
  12   -176.4543746 -0.817362E-05  0.288E-02    0.10       1.0  T
  13   -176.4545611 -0.186434E-03  0.205E-02    0.09       1.0  T
  14   -176.4546468 -0.857116E-04  0.806E-03    0.10       1.2  T
  15   -176.4546514 -0.463368E-05  0.745E-03    0.09       1.3  T
  16   -176.4546626 -0.111880E-04  0.235E-03    0.09       4.0  T
  17   -176.4546618  0.796412E-06  0.195E-03    0.09       4.9  T
  18   -176.4546630 -0.118214E-05  0.415E-04    0.09      22.9  T
  19   -176.4546630 -0.260095E-07  0.216E-04    0.09      44.0  T
  20   -176.4546630 -0.124743E-09  0.182E-04    0.09      52.2  T
     SCC iter.                  ...        0 min,  0.233 sec
     gradient                   ...        0 min,  0.095 sec
 * total energy  :  -174.2808759 Eh     change       -0.2473317E+00 Eh
   gradient norm :     0.3458628 Eh/α   predicted    -0.2142648E+00 ( -13.37%)
   displ. norm   :     0.7548664 α      lambda       -0.2220199E+00
   maximum displ.:     0.1533216 α      in ANC's #180, #283, #63, ...

........................................................................
.............................. CYCLE    3 ..............................
........................................................................

 iter      E             dE          RMSdq      gap      omega  full diag
   1   -176.7861172 -0.176786E+03  0.420E-01    0.17       0.0  T
   2   -176.6180861  0.168031E+00  0.838E-01    0.06       1.0  T
   3   -176.4814874  0.136599E+00  0.117E+00    0.29       1.0  T
   4   -176.7903174 -0.308830E+00  0.276E-01    0.12       1.0  T
   5   -176.7935930 -0.327560E-02  0.191E-01    0.21       1.0  T
   6   -176.7931466  0.446434E-03  0.146E-01    0.11       1.0  T
   7   -176.7945152 -0.136858E-02  0.132E-01    0.25       1.0  T
   8   -176.7963062 -0.179102E-02  0.936E-02    0.18       1.0  T
   9   -176.7982433 -0.193708E-02  0.222E-02    0.11       1.0  T
  10   -176.7981960  0.473007E-04  0.221E-02    0.11       1.0  T
  11   -176.7982755 -0.795005E-04  0.126E-02    0.12       1.0  T
  12   -176.7983109 -0.354655E-04  0.323E-03    0.11       2.9  T
  13   -176.7983121 -0.114171E-05  0.134E-03    0.11       7.1  T
  14   -176.7983122 -0.122201E-06  0.788E-04    0.11      12.0  T
  15   -176.7983122  0.130700E-07  0.708E-04    0.11      13.4  T
     SCC iter.                  ...        0 min,  0.173 sec
     gradient                   ...        0 min,  0.095 sec
 * total energy  :  -174.4488871 Eh     change       -0.1680113E+00 Eh
   gradient norm :     0.1592190 Eh/α   predicted    -0.1742660E+00 (   3.72%)
   displ. norm   :     0.8262392 α      lambda       -0.1183356E+00
   maximum displ.:     0.1879976 α      in ANC's #37, #63, #57, ...

........................................................................
.............................. CYCLE    4 ..............................
........................................................................

 iter      E             dE          RMSdq      gap      omega  full diag
   1   -177.0217828 -0.177022E+03  0.301E-01    0.17       0.0  T
   2   -177.0043112  0.174716E-01  0.325E-01    0.04       1.0  T
   3   -176.7676207  0.236690E+00  0.103E+00    0.37       1.0  T
   4   -177.0186370 -0.251016E+00  0.196E-01    0.22       1.0  T
   5   -177.0217052 -0.306818E-02  0.107E-01    0.21       1.0  T
   6   -177.0223152 -0.610002E-03  0.813E-02    0.19       1.0  T
   7   -177.0235530 -0.123776E-02  0.398E-02    0.16       1.0  T
   8   -177.0237332 -0.180211E-03  0.266E-02    0.12       1.0  T
   9   -177.0234427  0.290508E-03  0.407E-02    0.17       1.0  T
  10   -177.0238487 -0.406055E-03  0.118E-02    0.13       1.0  T
  11   -177.0238626 -0.138782E-04  0.863E-03    0.13       1.1  T
  12   -177.0238670 -0.440443E-05  0.683E-03    0.13       1.4  T
  13   -177.0238735 -0.649801E-05  0.406E-03    0.13       2.3  T
  14   -177.0238742 -0.695478E-06  0.346E-03    0.13       2.7  T
  15   -177.0238765 -0.228935E-05  0.147E-03    0.13       6.5  T
  16   -177.0238769 -0.388521E-06  0.736E-04    0.13      12.9  T
  17   -177.0238770 -0.100911E-06  0.319E-04    0.13      29.8  T
     SCC iter.                  ...        0 min,  0.196 sec
     gradient                   ...        0 min,  0.095 sec
 * total energy  :  -174.5501554 Eh     change       -0.1012683E+00 Eh
   gradient norm :     0.1190317 Eh/α   predicted    -0.9956042E-01 (  -1.69%)
   displ. norm   :     0.8701792 α      lambda       -0.9079599E-01
   maximum displ.:     0.2379448 α      in ANC's #37, #63, #57, ...

........................................................................
.............................. CYCLE    5 ..............................
........................................................................

 iter      E             dE          RMSdq      gap      omega  full diag
   1   -177.1879325 -0.177188E+03  0.268E-01    0.14       0.0  T
   2   -177.1875585  0.373960E-03  0.170E-01    0.16       1.0  T
   3   -177.1190387  0.685198E-01  0.492E-01    0.01       1.0  T
   4   -177.1813153 -0.622766E-01  0.210E-01    0.38       1.0  T
   5   -177.1871267 -0.581139E-02  0.844E-02    0.27       1.0  T
   6   -177.1873310 -0.204354E-03  0.768E-02    0.29       1.0  T
   7   -177.1875545 -0.223439E-03  0.687E-02    0.26       1.0  T
   8   -177.1878555 -0.300990E-03  0.589E-02    0.23       1.0  T
   9   -177.1881346 -0.279155E-03  0.487E-02    0.20       1.0  T
  10   -177.1886998 -0.565213E-03  0.149E-02    0.15       1.0  T
  11   -177.1887518 -0.519387E-04  0.457E-03    0.14       2.1  T
  12   -177.1887568 -0.504088E-05  0.663E-04    0.14      14.3  T
  13   -177.1887554  0.143127E-05  0.226E-03    0.14       4.2  T
  14   -177.1887566 -0.127641E-05  0.828E-04    0.14      11.5  T
  15   -177.1887568 -0.155533E-06  0.350E-04    0.14      27.1  T
  16   -177.1887568  0.395910E-07  0.517E-04    0.14      18.4  T
     SCC iter.                  ...        0 min,  0.182 sec
     gradient                   ...        0 min,  0.095 sec
 * total energy  :  -174.6314067 Eh     change       -0.8125123E-01 Eh
   gradient norm :     0.0979582 Eh/α   predicted    -0.7977394E-01 (  -1.82%)
   displ. norm   :     0.8947361 α      lambda       -0.7573868E-01
   maximum displ.:     0.2440085 α      in ANC's #37, #63, #57, ...

........................................................................
.............................. CYCLE    6 ..............................
........................................................................

 iter      E             dE          RMSdq      gap      omega  full diag
   1   -177.3162199 -0.177316E+03  0.243E-01    0.13       0.0  T
   2   -177.3155711  0.648838E-03  0.158E-01    0.21       1.0  T
   3   -177.1459291  0.169642E+00  0.752E-01    0.09       1.0  T
   4   -177.3141091 -0.168180E+00  0.143E-01    0.33       1.0  T
   5   -177.3153779 -0.126877E-02  0.801E-02    0.32       1.0  T
   6   -177.3156500 -0.272129E-03  0.703E-02    0.30       1.0  T
   7   -177.3157991 -0.149110E-03  0.649E-02    0.28       1.0  T
   8   -177.3159569 -0.157833E-03  0.594E-02    0.25       1.0  T
   9   -177.3160613 -0.104356E-03  0.554E-02    0.24       1.0  T
  10   -177.3163719 -0.310564E-03  0.428E-02    0.20       1.0  T
  11   -177.3167738 -0.401968E-03  0.183E-02    0.16       1.0  T
  12   -177.3168434 -0.695494E-04  0.882E-03    0.14       1.1  T
  13   -177.3168648 -0.214361E-04  0.233E-03    0.15       4.1  T
  14   -177.3168664 -0.154154E-05  0.292E-04    0.14      32.5  T
  15   -177.3168663  0.398769E-07  0.451E-04    0.14      21.0  T
  16   -177.3168663 -0.238664E-07  0.350E-04    0.14      27.1  T
     SCC iter.                  ...        0 min,  0.185 sec
     gradient                   ...        0 min,  0.096 sec
 * total energy  :  -174.7006197 Eh     change       -0.6921307E-01 Eh
   gradient norm :     0.0849870 Eh/α   predicted    -0.6818587E-01 (  -1.48%)
   displ. norm   :     0.9087613 α      lambda       -0.6576763E-01
   maximum displ.:     0.2632604 α      in ANC's #37, #63, #53, ...

........................................................................
.............................. CYCLE    7 ..............................
........................................................................

 iter      E             dE          RMSdq      gap      omega  full diag
   1   -177.4129333 -0.177413E+03  0.234E-01    0.12       0.0  T
   2   -177.4116075  0.132584E-02  0.168E-01    0.33       1.0  T
   3   -177.2764903  0.135117E+00  0.674E-01    0.07       1.0  T
   4   -177.4113389 -0.134849E+00  0.137E-01    0.36       1.0  T
   5   -177.4120073 -0.668398E-03  0.958E-02    0.36       1.0  T
   6   -177.4123320 -0.324617E-03  0.859E-02    0.34       1.0  T
   7   -177.4124837 -0.151715E-03  0.804E-02    0.33       1.0  T
   8   -177.4126085 -0.124780E-03  0.758E-02    0.32       1.0  T
   9   -177.4126913 -0.827953E-04  0.727E-02    0.31       1.0  T
  10   -177.4130851 -0.393822E-03  0.585E-02    0.24       1.0  T
  11   -177.4138293 -0.744189E-03  0.236E-02    0.17       1.0  T
  12   -177.4138126  0.166334E-04  0.238E-02    0.12       1.0  T
  13   -177.4138585 -0.458911E-04  0.208E-02    0.16       1.0  T
  14   -177.4139841 -0.125528E-03  0.394E-04    0.14      24.1  T
  15   -177.4139839  0.138970E-06  0.717E-04    0.14      13.2  T
  16   -177.4139835  0.448210E-06  0.143E-03    0.14       6.7  T
  17   -177.4139841 -0.597575E-06  0.742E-05    0.14     128.0  T
     SCC iter.                  ...        0 min,  0.196 sec
     gradient                   ...        0 min,  0.096 sec
 * total energy  :  -174.7608688 Eh     change       -0.6024903E-01 Eh
   gradient norm :     0.0716437 Eh/α   predicted    -0.6004088E-01 (  -0.35%)
   displ. norm   :     0.9116038 α      lambda       -0.5647864E-01
   maximum displ.:     0.2454747 α      in ANC's #63, #33, #37, ...

........................................................................
.............................. CYCLE    8 ..............................
........................................................................

 iter      E             dE          RMSdq      gap      omega  full diag
   1   -177.4935314 -0.177494E+03  0.215E-01    0.11       0.0  T
   2   -177.4919583  0.157315E-02  0.161E-01    0.31       1.0  T
   3   -177.3288240  0.163134E+00  0.738E-01    0.09       1.0  T
   4   -177.4912558 -0.162432E+00  0.137E-01    0.33       1.0  T
   5   -177.4922833 -0.102759E-02  0.937E-02    0.33       1.0  T
   6   -177.4925383 -0.254990E-03  0.852E-02    0.32       1.0  T
   7   -177.4927050 -0.166693E-03  0.797E-02    0.31       1.0  T
   8   -177.4928376 -0.132538E-03  0.750E-02    0.30       1.0  T
   9   -177.4929580 -0.120395E-03  0.707E-02    0.28       1.0  T
  10   -177.4934106 -0.452648E-03  0.552E-02    0.22       1.0  T
  11   -177.4942342 -0.823617E-03  0.247E-03    0.14       3.8  T
  12   -177.4942280  0.625544E-05  0.481E-03    0.13       2.0  T
  13   -177.4942248  0.313347E-05  0.582E-03    0.14       1.6  T
  14   -177.4942318 -0.698365E-05  0.319E-03    0.14       3.0  T
  15   -177.4942338 -0.194792E-05  0.198E-03    0.14       4.8  T
  16   -177.4942349 -0.116162E-05  0.664E-05    0.14     143.0  T
  17   -177.4942349  0.119544E-07  0.208E-04    0.14      45.7  T
  18   -177.4942349  0.896392E-09  0.213E-04    0.14      44.7  T
     SCC iter.                  ...        0 min,  0.210 sec
     gradient                   ...        0 min,  0.096 sec
 * total energy  :  -174.8106266 Eh     change       -0.4975786E-01 Eh
   gradient norm :     0.0575292 Eh/α   predicted    -0.5170688E-01 (   3.92%)
   displ. norm   :     0.9250260 α      lambda       -0.4817699E-01
   maximum displ.:     0.3322796 α      in ANC's #37, #39, #33, ...

........................................................................
.............................. CYCLE    9 ..............................
........................................................................

 iter      E             dE          RMSdq      gap      omega  full diag
   1   -177.5465439 -0.177547E+03  0.235E-01    0.11       0.0  T
   2   -177.5446217  0.192218E-02  0.174E-01    0.35       1.0  T
   3   -177.3826727  0.161949E+00  0.739E-01    0.09       1.0  T
   4   -177.5445336 -0.161861E+00  0.143E-01    0.33       1.0  T
   5   -177.5451538 -0.620213E-03  0.103E-01    0.34       1.0  T
   6   -177.5455500 -0.396199E-03  0.942E-02    0.32       1.0  T
   7   -177.5457440 -0.193962E-03  0.875E-02    0.31       1.0  T
   8   -177.5459006 -0.156593E-03  0.822E-02    0.30       1.0  T
   9   -177.5460786 -0.178072E-03  0.763E-02    0.28       1.0  T
  10   -177.5466177 -0.539062E-03  0.591E-02    0.22       1.0  T
  11   -177.5468594 -0.241732E-03  0.479E-02    0.10       1.0  T
  12   -177.5474884 -0.628957E-03  0.163E-02    0.15       1.0  T
  13   -177.5475439 -0.555423E-04  0.844E-03    0.13       1.1  T
  14   -177.5475615 -0.175373E-04  0.363E-03    0.14       2.6  T
  15   -177.5475650 -0.354948E-05  0.931E-04    0.13      10.2  T
  16   -177.5475651 -0.777273E-07  0.772E-04    0.13      12.3  T
  17   -177.5475653 -0.165436E-06  0.162E-04    0.13      58.6  T
     SCC iter.                  ...        0 min,  0.195 sec
     gradient                   ...        0 min,  0.096 sec
 * total energy  :  -174.8462868 Eh     change       -0.3566017E-01 Eh
   gradient norm :     0.0846174 Eh/α   predicted    -0.4470038E-01 (  25.35%)
   displ. norm   :     0.8337751 α      lambda       -0.4119626E-01
   maximum displ.:     0.2347694 α      in ANC's #35, #33, #63, ...

........................................................................
.............................. CYCLE   10 ..............................
........................................................................

 iter      E             dE          RMSdq      gap      omega  full diag
   1   -177.6111058 -0.177611E+03  0.221E-01    0.11       0.0  T
   2   -177.6093522  0.175361E-02  0.160E-01    0.27       1.0  T
   3   -177.4069021  0.202450E+00  0.821E-01    0.15       1.0  T
   4   -177.6087533 -0.201851E+00  0.134E-01    0.26       1.0  T
   5   -177.6096576 -0.904303E-03  0.901E-02    0.29       1.0  T
   6   -177.6101013 -0.443689E-03  0.800E-02    0.27       1.0  T
   7   -177.6103157 -0.214420E-03  0.729E-02    0.26       1.0  T
   8   -177.6105674 -0.251660E-03  0.652E-02    0.23       1.0  T
   9   -177.6108640 -0.296679E-03  0.555E-02    0.21       1.0  T
  10   -177.6116234 -0.759384E-03  0.177E-02    0.15       1.0  T
  11   -177.6116740 -0.505398E-04  0.109E-02    0.12       1.0  T
  12   -177.6117092 -0.352098E-04  0.174E-03    0.13       5.5  T
  13   -177.6117097 -0.482557E-06  0.102E-03    0.13       9.3  T
  14   -177.6117098 -0.164437E-06  0.624E-04    0.13      15.2  T
  15   -177.6117098  0.502235E-07  0.759E-04    0.13      12.5  T
     SCC iter.                  ...        0 min,  0.174 sec
     gradient                   ...        0 min,  0.096 sec
 * total energy  :  -174.8792168 Eh     change       -0.3293004E-01 Eh
   gradient norm :     0.0513365 Eh/α   predicted    -0.3491757E-01 (   6.04%)
   displ. norm   :     0.8589769 α      lambda       -0.3166430E-01
   maximum displ.:     0.2701666 α      in ANC's #35, #33, #38, ...

........................................................................
.............................. CYCLE   11 ..............................
........................................................................

 iter      E             dE          RMSdq      gap      omega  full diag
   1   -177.6732454 -0.177673E+03  0.205E-01    0.13       0.0  T
   2   -177.6724381  0.807339E-03  0.133E-01    0.19       1.0  T
   3   -177.4778652  0.194573E+00  0.799E-01    0.14       1.0  T
   4   -177.6711434 -0.193278E+00  0.123E-01    0.23       1.0  T
   5   -177.6724155 -0.127207E-02  0.646E-02    0.22       1.0  T
   6   -177.6727431 -0.327586E-03  0.539E-02    0.20       1.0  T
   7   -177.6730053 -0.262275E-03  0.437E-02    0.18       1.0  T
   8   -177.6732556 -0.250262E-03  0.321E-02    0.17       1.0  T
   9   -177.6734459 -0.190323E-03  0.190E-02    0.15       1.0  T
  10   -177.6735426 -0.966396E-04  0.448E-03    0.14       2.1  T
  11   -177.6735481 -0.551972E-05  0.624E-04    0.13      15.2  T
  12   -177.6735481 -0.775148E-08  0.410E-04    0.13      23.1  T
  13   -177.6735481 -0.229626E-07  0.280E-04    0.13      33.9  T
     SCC iter.                  ...        0 min,  0.149 sec
     gradient                   ...        0 min,  0.097 sec
 * total energy  :  -174.9056090 Eh     change       -0.2639215E-01 Eh
   gradient norm :     0.0510953 Eh/α   predicted    -0.2751377E-01 (   4.25%)
   displ. norm   :     0.8780651 α      lambda       -0.2903208E-01
   maximum displ.:     0.2879369 α      in ANC's #35, #33, #37, ...

........................................................................
.............................. CYCLE   12 ..............................
........................................................................

 iter      E             dE          RMSdq      gap      omega  full diag
   1   -177.7231816 -0.177723E+03  0.202E-01    0.12       0.0  T
   2   -177.7220381  0.114356E-02  0.139E-01    0.22       1.0  T
   3   -177.5365255  0.185513E+00  0.780E-01    0.13       1.0  T
   4   -177.7215875 -0.185062E+00  0.117E-01    0.24       1.0  T
   5   -177.7220876 -0.500056E-03  0.758E-02    0.25       1.0  T
   6   -177.7225335 -0.445931E-03  0.639E-02    0.23       1.0  T
   7   -177.7227826 -0.249116E-03  0.556E-02    0.21       1.0  T
   8   -177.7230411 -0.258458E-03  0.462E-02    0.19       1.0  T
   9   -177.7232857 -0.244598E-03  0.355E-02    0.17       1.0  T
  10   -177.7236150 -0.329363E-03  0.103E-02    0.14       1.0  T
  11   -177.7236444 -0.293882E-04  0.911E-04    0.13      10.4  T
  12   -177.7236446 -0.137684E-06  0.412E-04    0.13      23.1  T
  13   -177.7236446 -0.107937E-07  0.272E-04    0.13      34.9  T
     SCC iter.                  ...        0 min,  0.152 sec
     gradient                   ...        0 min,  0.097 sec
 * total energy  :  -174.9300801 Eh     change       -0.2447110E-01 Eh
   gradient norm :     0.0527449 Eh/α   predicted    -0.2570789E-01 (   5.05%)
   displ. norm   :     0.8554265 α      lambda       -0.2479850E-01
   maximum displ.:     0.2749324 α      in ANC's #35, #33, #7, ...

........................................................................
.............................. CYCLE   13 ..............................
........................................................................

 iter      E             dE          RMSdq      gap      omega  full diag
   1   -177.7755971 -0.177776E+03  0.193E-01    0.12       0.0  T
   2   -177.7735650  0.203203E-02  0.151E-01    0.28       1.0  T
   3   -177.6244970  0.149068E+00  0.704E-01    0.08       1.0  T
   4   -177.7733396 -0.148843E+00  0.133E-01    0.25       1.0  T
   5   -177.7741639 -0.824231E-03  0.904E-02    0.28       1.0  T
   6   -177.7745190 -0.355149E-03  0.819E-02    0.26       1.0  T
   7   -177.7746764 -0.157410E-03  0.763E-02    0.26       1.0  T
   8   -177.7748441 -0.167699E-03  0.709E-02    0.25       1.0  T
   9   -177.7750672 -0.223094E-03  0.637E-02    0.24       1.0  T
  10   -177.7756550 -0.587832E-03  0.424E-02    0.18       1.0  T
  11   -177.7761386 -0.483546E-03  0.791E-03    0.13       1.2  T
  12   -177.7761388 -0.242452E-06  0.822E-03    0.14       1.2  T
  13   -177.7761518 -0.130170E-04  0.465E-03    0.13       2.0  T
  14   -177.7761518 -0.900786E-08  0.471E-03    0.14       2.0  T
  15   -177.7761585 -0.665459E-05  0.241E-04    0.13      39.5  T
  16   -177.7761585  0.873905E-08  0.283E-04    0.13      33.6  T
  17   -177.7761585 -0.230509E-07  0.398E-05    0.13     238.5  T
     SCC iter.                  ...        0 min,  0.197 sec
     gradient                   ...        0 min,  0.097 sec
 * total energy  :  -174.9515612 Eh     change       -0.2148106E-01 Eh
   gradient norm :     0.0583633 Eh/α   predicted    -0.2147245E-01 (  -0.04%)
   displ. norm   :     0.8681452 α      lambda       -0.2503584E-01
   maximum displ.:     0.2701237 α      in ANC's #33, #35, #7, ...

........................................................................
.............................. CYCLE   14 ..............................
........................................................................

 iter      E             dE          RMSdq      gap      omega  full diag
   1   -177.8135768 -0.177814E+03  0.205E-01    0.13       0.0  T
   2   -177.8130253  0.551562E-03  0.128E-01    0.18       1.0  T
   3   -177.6288423  0.184183E+00  0.774E-01    0.12       1.0  T
   4   -177.8121449 -0.183303E+00  0.106E-01    0.24       1.0  T
   5   -177.8127237 -0.578813E-03  0.641E-02    0.23       1.0  T
   6   -177.8130738 -0.350082E-03  0.537E-02    0.21       1.0  T
   7   -177.8133077 -0.233914E-03  0.446E-02    0.19       1.0  T
   8   -177.8135539 -0.246145E-03  0.335E-02    0.17       1.0  T
   9   -177.8137675 -0.213615E-03  0.193E-02    0.15       1.0  T
  10   -177.8138693 -0.101773E-03  0.442E-03    0.14       2.1  T
  11   -177.8138746 -0.529049E-05  0.571E-04    0.14      16.6  T
  12   -177.8138746 -0.515958E-07  0.292E-04    0.14      32.5  T
  13   -177.8138746 -0.239046E-08  0.231E-04    0.14      41.0  T
     SCC iter.                  ...        0 min,  0.151 sec
     gradient                   ...        0 min,  0.097 sec
 * total energy  :  -174.9719066 Eh     change       -0.2034549E-01 Eh
   gradient norm :     0.0541151 Eh/α   predicted    -0.2195241E-01 (   7.90%)
   displ. norm   :     0.8179629 α      lambda       -0.2275825E-01
   maximum displ.:     0.2631243 α      in ANC's #35, #33, #7, ...

........................................................................
.............................. CYCLE   15 ..............................
........................................................................

 iter      E             dE          RMSdq      gap      omega  full diag
   1   -177.8471839 -0.177847E+03  0.215E-01    0.13       0.0  T
   2   -177.8470166  0.167297E-03  0.133E-01    0.16       1.0  T
   3   -177.7383329  0.108684E+00  0.594E-01    0.05       1.0  T
   4   -177.8454742 -0.107141E+00  0.116E-01    0.27       1.0  T
   5   -177.8462779 -0.803755E-03  0.658E-02    0.25       1.0  T
   6   -177.8466233 -0.345342E-03  0.569E-02    0.22       1.0  T
   7   -177.8468175 -0.194200E-03  0.496E-02    0.20       1.0  T
   8   -177.8470714 -0.253898E-03  0.392E-02    0.18       1.0  T
   9   -177.8472793 -0.207942E-03  0.285E-02    0.17       1.0  T
  10   -177.8474930 -0.213641E-03  0.820E-03    0.14       1.2  T
  11   -177.8475116 -0.186430E-04  0.141E-03    0.13       6.7  T
  12   -177.8475117 -0.623441E-07  0.134E-03    0.14       7.1  T
  13   -177.8475122 -0.485981E-06  0.363E-04    0.14      26.2  T
  14   -177.8475122 -0.364953E-07  0.568E-05    0.14     167.2  T
     SCC iter.                  ...        0 min,  0.161 sec
     gradient                   ...        0 min,  0.098 sec
 * total energy  :  -174.9865605 Eh     change       -0.1465386E-01 Eh
   gradient norm :     0.0538541 Eh/α   predicted    -0.1899246E-01 (  29.61%)
   displ. norm   :     0.7309561 α      lambda       -0.1656521E-01
   maximum displ.:     0.2359476 α      in ANC's #33, #7, #35, ...

........................................................................
.............................. CYCLE   16 ..............................
........................................................................

 iter      E             dE          RMSdq      gap      omega  full diag
   1   -177.8616638 -0.177862E+03  0.180E-01    0.13       0.0  T
   2   -177.8601492  0.151457E-02  0.137E-01    0.24       1.0  T
   3   -177.7001626  0.159987E+00  0.721E-01    0.09       1.0  T
   4   -177.8592719 -0.159109E+00  0.127E-01    0.23       1.0  T
   5   -177.8605024 -0.123051E-02  0.776E-02    0.27       1.0  T
   6   -177.8607513 -0.248889E-03  0.704E-02    0.25       1.0  T
   7   -177.8609112 -0.159929E-03  0.648E-02    0.25       1.0  T
   8   -177.8611142 -0.202978E-03  0.580E-02    0.23       1.0  T
   9   -177.8613982 -0.284046E-03  0.476E-02    0.20       1.0  T
  10   -177.8619568 -0.558627E-03  0.164E-02    0.15       1.0  T
  11   -177.8620226 -0.657386E-04  0.582E-03    0.13       1.6  T
  12   -177.8620309 -0.832651E-05  0.269E-03    0.14       3.5  T
  13   -177.8620328 -0.189480E-05  0.862E-04    0.14      11.0  T
  14   -177.8620330 -0.214474E-06  0.214E-04    0.14      44.4  T
  15   -177.8620330  0.158784E-07  0.308E-04    0.14      30.8  T
     SCC iter.                  ...        0 min,  0.175 sec
     gradient                   ...        0 min,  0.097 sec
 * total energy  :  -174.9974276 Eh     change       -0.1086708E-01 Eh
   gradient norm :     0.0478662 Eh/α   predicted    -0.1270799E-01 (  16.94%)
   displ. norm   :     0.6804309 α      lambda       -0.1291618E-01
   maximum displ.:     0.2553680 α      in ANC's #7, #33, #35, ...

........................................................................
.............................. CYCLE   17 ..............................
........................................................................

 iter      E             dE          RMSdq      gap      omega  full diag
   1   -177.8904532 -0.177890E+03  0.148E-01    0.13       0.0  T
   2   -177.8904288  0.244568E-04  0.918E-02    0.16       1.0  T
   3   -177.8146326  0.757961E-01  0.493E-01    0.02       1.0  T
   4   -177.8894453 -0.748127E-01  0.737E-02    0.21       1.0  T
   5   -177.8900783 -0.633002E-03  0.436E-02    0.19       1.0  T
   6   -177.8902236 -0.145308E-03  0.364E-02    0.18       1.0  T
   7   -177.8903956 -0.171928E-03  0.273E-02    0.16       1.0  T
   8   -177.8905134 -0.117804E-03  0.182E-02    0.15       1.0  T
   9   -177.8905883 -0.749419E-04  0.875E-03    0.14       1.1  T
  10   -177.8906076 -0.193013E-04  0.290E-03    0.14       3.3  T
  11   -177.8906099 -0.224775E-05  0.704E-04    0.14      13.5  T
  12   -177.8906100 -0.113773E-06  0.217E-04    0.14      43.8  T
  13   -177.8906100 -0.110739E-07  0.578E-05    0.14     164.2  T
     SCC iter.                  ...        0 min,  0.149 sec
     gradient                   ...        0 min,  0.098 sec
 * total energy  :  -175.0048713 Eh     change       -0.7443747E-02 Eh
   gradient norm :     0.0571820 Eh/α   predicted    -0.9448092E-02 (  26.93%)
   displ. norm   :     0.6728636 α      lambda       -0.1292971E-01
   maximum displ.:     0.2706302 α      in ANC's #7, #33, #26, ...

........................................................................
.............................. CYCLE   18 ..............................
........................................................................

 iter      E             dE          RMSdq      gap      omega  full diag
   1   -177.9019701 -0.177902E+03  0.145E-01    0.14       0.0  T
   2   -177.9019775 -0.736883E-05  0.871E-02    0.13       1.0  T
   3   -177.9006484  0.132914E-02  0.767E-02    0.24       1.0  T
   4   -177.9002771  0.371285E-03  0.784E-02    0.09       1.0  T
   5   -177.9017159 -0.143879E-02  0.320E-02    0.17       1.0  T
   6   -177.9019905 -0.274604E-03  0.113E-02    0.15       1.0  T
   7   -177.9020234 -0.329466E-04  0.235E-03    0.14       4.0  T
   8   -177.9020239 -0.483214E-06  0.138E-03    0.14       6.9  T
   9   -177.9020237  0.163541E-06  0.122E-03    0.13       7.8  T
  10   -177.9020242 -0.430179E-06  0.185E-04    0.14      51.3  T
  11   -177.9020242 -0.978929E-09  0.978E-05    0.14      97.1  T
     SCC iter.                  ...        0 min,  0.128 sec
     gradient                   ...        0 min,  0.098 sec
 * total energy  :  -175.0138495 Eh     change       -0.8978177E-02 Eh
   gradient norm :     0.0309691 Eh/α   predicted    -0.9391789E-02 (   4.61%)
   displ. norm   :     0.7532181 α      lambda       -0.1011377E-01
   maximum displ.:     0.3149149 α      in ANC's #7, #33, #2, ...

........................................................................
.............................. CYCLE   19 ..............................
........................................................................

 iter      E             dE          RMSdq      gap      omega  full diag
   1   -177.8907431 -0.177891E+03  0.161E-01    0.14       0.0  T
   2   -177.8905865  0.156571E-03  0.109E-01    0.16       1.0  T
   3   -177.8236999  0.668866E-01  0.470E-01    0.01       1.0  T
   4   -177.8893330 -0.656331E-01  0.961E-02    0.22       1.0  T
   5   -177.8899502 -0.617169E-03  0.622E-02    0.22       1.0  T
   6   -177.8903569 -0.406747E-03  0.496E-02    0.20       1.0  T
   7   -177.8905777 -0.220824E-03  0.405E-02    0.18       1.0  T
   8   -177.8907919 -0.214174E-03  0.295E-02    0.17       1.0  T
   9   -177.8909485 -0.156579E-03  0.182E-02    0.15       1.0  T
  10   -177.8910364 -0.878842E-04  0.411E-03    0.14       2.3  T
  11   -177.8910409 -0.449141E-05  0.838E-04    0.14      11.3  T
  12   -177.8910410 -0.136051E-06  0.302E-04    0.14      31.4  T
  13   -177.8910410  0.166383E-07  0.371E-04    0.14      25.6  T
     SCC iter.                  ...        0 min,  0.151 sec
     gradient                   ...        0 min,  0.098 sec
 * total energy  :  -175.0192705 Eh     change       -0.5420963E-02 Eh
   gradient norm :     0.0513395 Eh/α   predicted    -0.7925851E-02 (  46.21%)
   displ. norm   :     0.6751337 α      lambda       -0.1052796E-01
   maximum displ.:     0.3258888 α      in ANC's #7, #2, #33, ...

........................................................................
.............................. CYCLE   20 ..............................
........................................................................

 iter      E             dE          RMSdq      gap      omega  full diag
   1   -177.9178047 -0.177918E+03  0.144E-01    0.13       0.0  T
   2   -177.9176797  0.125001E-03  0.901E-02    0.16       1.0  T
   3   -177.7749744  0.142705E+00  0.672E-01    0.08       1.0  T
   4   -177.9170979 -0.142124E+00  0.592E-02    0.19       1.0  T
   5   -177.9175420 -0.444072E-03  0.347E-02    0.18       1.0  T
   6   -177.9176777 -0.135675E-03  0.271E-02    0.16       1.0  T
   7   -177.9177987 -0.121028E-03  0.180E-02    0.15       1.0  T
   8   -177.9178514 -0.527203E-04  0.118E-02    0.15       1.0  T
   9   -177.9178820 -0.305984E-04  0.599E-03    0.14       1.6  T
  10   -177.9178904 -0.834598E-05  0.248E-03    0.14       3.8  T
  11   -177.9178920 -0.158926E-05  0.837E-04    0.14      11.3  T
  12   -177.9178921 -0.168106E-06  0.332E-04    0.14      28.6  T
  13   -177.9178922 -0.266197E-07  0.110E-04    0.14      86.0  T
     SCC iter.                  ...        0 min,  0.151 sec
     gradient                   ...        0 min,  0.098 sec
 * total energy  :  -175.0245217 Eh     change       -0.5251271E-02 Eh
   gradient norm :     0.0467287 Eh/α   predicted    -0.7663331E-02 (  45.93%)
   displ. norm   :     0.6124963 α      lambda       -0.1090673E-01
   maximum displ.:     0.2775714 α      in ANC's #7, #2, #24, ...
 * RMSD in coord.:     1.2142640 α      energy gain  -0.9909776E+00 Eh

generating ANC from exact Hessian ...
Using Lindh-Hessian (1995)
 Shifting diagonal of input Hessian by    9.9893668927908668E-003
 Lowest  eigenvalues of input Hessian
    0.000000    0.000000    0.000000    0.000000    0.000000    0.000000
    0.010000    0.010022    0.010055    0.010059    0.010100    0.010140
    0.010209    0.010349    0.010426    0.010480    0.010655    0.010934
 Highest eigenvalues
    2.170427    2.222584    2.240018    2.254748    2.288257    2.349788


........................................................................
.............................. CYCLE   21 ..............................
........................................................................

 iter      E             dE          RMSdq      gap      omega  full diag
   1   -177.9180859 -0.177918E+03  0.183E-01    0.13       0.0  T
   2   -177.9181755 -0.895774E-04  0.114E-01    0.15       1.0  T
   3   -177.8839614  0.342141E-01  0.337E-01    0.01       1.0  T
   4   -177.9163419 -0.323806E-01  0.100E-01    0.28       1.0  T
   5   -177.9174469 -0.110499E-02  0.585E-02    0.23       1.0  T
   6   -177.9176673 -0.220413E-03  0.496E-02    0.20       1.0  T
   7   -177.9180154 -0.348076E-03  0.356E-02    0.18       1.0  T
   8   -177.9182245 -0.209140E-03  0.228E-02    0.16       1.0  T
   9   -177.9183593 -0.134725E-03  0.743E-03    0.14       1.3  T
  10   -177.9183736 -0.143555E-04  0.174E-03    0.14       5.5  T
  11   -177.9183744 -0.731729E-06  0.451E-04    0.14      21.0  T
  12   -177.9183744 -0.932863E-08  0.401E-04    0.14      23.7  T
     SCC iter.                  ...        0 min,  0.138 sec
     gradient                   ...        0 min,  0.098 sec
 * total energy  :  -175.0260110 Eh     change       -0.1489288E-02 Eh
   gradient norm :     0.0764872 Eh/α   predicted     0.0000000E+00 (-100.00%)
   displ. norm   :     0.3601154 α      lambda       -0.8672159E-02
   maximum displ.:     0.1298386 α      in ANC's #7, #24, #13, ...

........................................................................
.............................. CYCLE   22 ..............................
........................................................................

 iter      E             dE          RMSdq      gap      omega  full diag
   1   -177.9266748 -0.177927E+03  0.946E-02    0.14       0.0  T
   2   -177.9267064 -0.316878E-04  0.590E-02    0.14       1.0  T
   3   -177.9259325  0.773976E-03  0.615E-02    0.11       1.0  T
   4   -177.9253750  0.557425E-03  0.737E-02    0.24       1.0  T
   5   -177.9266506 -0.127560E-02  0.191E-02    0.15       1.0  T
   6   -177.9267516 -0.100979E-03  0.565E-03    0.13       1.7  T
   7   -177.9267588 -0.714045E-05  0.329E-03    0.14       2.9  T
   8   -177.9267612 -0.240296E-05  0.143E-03    0.13       6.6  T
   9   -177.9267616 -0.395132E-06  0.432E-04    0.14      22.0  T
  10   -177.9267616 -0.193743E-07  0.241E-04    0.14      39.3  T
     SCC iter.                  ...        0 min,  0.116 sec
     gradient                   ...        0 min,  0.098 sec
 * total energy  :  -175.0322588 Eh     change       -0.6247811E-02 Eh
   gradient norm :     0.0266829 Eh/α   predicted    -0.4908471E-02 ( -21.44%)
   displ. norm   :     0.5632278 α      lambda       -0.5022555E-02
   maximum displ.:     0.2172643 α      in ANC's #7, #12, #24, ...

........................................................................
.............................. CYCLE   23 ..............................
........................................................................

 iter      E             dE          RMSdq      gap      omega  full diag
   1   -177.9338452 -0.177934E+03  0.884E-02    0.13       0.0  T
   2   -177.9338472 -0.199603E-05  0.549E-02    0.14       1.0  T
   3   -177.9288146  0.503260E-02  0.131E-01    0.07       1.0  T
   4   -177.9329198 -0.410525E-02  0.642E-02    0.21       1.0  T
   5   -177.9336738 -0.754013E-03  0.273E-02    0.16       1.0  T
   6   -177.9338624 -0.188605E-03  0.120E-02    0.14       1.0  T
   7   -177.9338960 -0.335384E-04  0.446E-03    0.14       2.1  T
   8   -177.9339010 -0.499765E-05  0.964E-04    0.13       9.8  T
   9   -177.9339005  0.442019E-06  0.132E-03    0.13       7.2  T
  10   -177.9339011 -0.543645E-06  0.162E-04    0.13      58.4  T
  11   -177.9339011 -0.266567E-08  0.842E-05    0.13     112.8  T
     SCC iter.                  ...        0 min,  0.128 sec
     gradient                   ...        0 min,  0.098 sec
 * total energy  :  -175.0360999 Eh     change       -0.3841042E-02 Eh
   gradient norm :     0.0152481 Eh/α   predicted    -0.3311170E-02 ( -13.80%)
   displ. norm   :     0.6933266 α      lambda       -0.3991039E-02
   maximum displ.:     0.2691884 α      in ANC's #7, #12, #24, ...

........................................................................
.............................. CYCLE   24 ..............................
........................................................................

 iter      E             dE          RMSdq      gap      omega  full diag
   1   -177.9372134 -0.177937E+03  0.987E-02    0.13       0.0  T
   2   -177.9372169 -0.351616E-05  0.586E-02    0.14       1.0  T
   3   -177.9342656  0.295131E-02  0.990E-02    0.08       1.0  T
   4   -177.9365258 -0.226019E-02  0.537E-02    0.19       1.0  T
   5   -177.9371679 -0.642071E-03  0.153E-02    0.15       1.0  T
   6   -177.9372343 -0.664079E-04  0.445E-03    0.14       2.1  T
   7   -177.9372384 -0.413315E-05  0.127E-03    0.13       7.5  T
   8   -177.9372384  0.306011E-08  0.948E-04    0.13      10.0  T
   9   -177.9372385 -0.642965E-07  0.659E-04    0.13      14.4  T
     SCC iter.                  ...        0 min,  0.105 sec
     gradient                   ...        0 min,  0.098 sec
 * total energy  :  -175.0397233 Eh     change       -0.3623413E-02 Eh
   gradient norm :     0.0275792 Eh/α   predicted    -0.2954770E-02 ( -18.45%)
   displ. norm   :     0.8355013 α      lambda       -0.4787887E-02
   maximum displ.:     0.3173891 α      in ANC's #7, #12, #8, ...

........................................................................
.............................. CYCLE   25 ..............................
........................................................................

 iter      E             dE          RMSdq      gap      omega  full diag
   1   -177.9397070 -0.177940E+03  0.119E-01    0.13       0.0  T
   2   -177.9397165 -0.952729E-05  0.694E-02    0.13       1.0  T
   3   -177.9393162  0.400281E-03  0.440E-02    0.17       1.0  T
   4   -177.9379670  0.134918E-02  0.757E-02    0.09       1.0  T
   5   -177.9396960 -0.172899E-02  0.108E-02    0.14       1.0  T
   6   -177.9397265 -0.305282E-04  0.384E-03    0.14       2.5  T
   7   -177.9397294 -0.280882E-05  0.130E-03    0.13       7.3  T
   8   -177.9397296 -0.200533E-06  0.666E-04    0.13      14.3  T
   9   -177.9397296 -0.798317E-07  0.325E-04    0.13      29.2  T
     SCC iter.                  ...        0 min,  0.107 sec
     gradient                   ...        0 min,  0.099 sec
 * total energy  :  -175.0441358 Eh     change       -0.4412457E-02 Eh
   gradient norm :     0.0249301 Eh/α   predicted    -0.4065115E-02 (  -7.87%)
   displ. norm   :     0.8480317 α      lambda       -0.4767882E-02
   maximum displ.:     0.3289221 α      in ANC's #12, #7, #8, ...

........................................................................
.............................. CYCLE   26 ..............................
........................................................................

 iter      E             dE          RMSdq      gap      omega  full diag
   1   -177.9451304 -0.177945E+03  0.115E-01    0.14       0.0  T
   2   -177.9450458  0.845757E-04  0.698E-02    0.12       1.0  T
   3   -177.9429360  0.210979E-02  0.992E-02    0.30       1.0  T
   4   -177.9450200 -0.208393E-02  0.240E-02    0.16       1.0  T
   5   -177.9451229 -0.102911E-03  0.114E-02    0.13       1.0  T
   6   -177.9451403 -0.174192E-04  0.841E-03    0.14       1.1  T
   7   -177.9451548 -0.144752E-04  0.389E-03    0.13       2.4  T
   8   -177.9451568 -0.205163E-05  0.277E-03    0.14       3.4  T
   9   -177.9451588 -0.192997E-05  0.115E-03    0.13       8.3  T
  10   -177.9451592 -0.409374E-06  0.145E-04    0.13      65.3  T
  11   -177.9451592 -0.216670E-08  0.632E-05    0.13     150.2  T
     SCC iter.                  ...        0 min,  0.129 sec
     gradient                   ...        0 min,  0.098 sec
 * total energy  :  -175.0483989 Eh     change       -0.4263114E-02 Eh
   gradient norm :     0.0138764 Eh/α   predicted    -0.4098373E-02 (  -3.86%)
   displ. norm   :     0.8565231 α      lambda       -0.4110163E-02
   maximum displ.:     0.3669478 α      in ANC's #12, #7, #9, ...

........................................................................
.............................. CYCLE   27 ..............................
........................................................................

 iter      E             dE          RMSdq      gap      omega  full diag
   1   -177.9511742 -0.177951E+03  0.111E-01    0.14       0.0  T
   2   -177.9509667  0.207540E-03  0.705E-02    0.12       1.0  T
   3   -177.9486130  0.235365E-02  0.109E-01    0.32       1.0  T
   4   -177.9504628 -0.184975E-02  0.510E-02    0.21       1.0  T
   5   -177.9511106 -0.647815E-03  0.183E-02    0.15       1.0  T
   6   -177.9511966 -0.860042E-04  0.366E-03    0.13       2.6  T
   7   -177.9511912  0.542257E-05  0.498E-03    0.14       1.9  T
   8   -177.9511882  0.292400E-05  0.567E-03    0.13       1.7  T
   9   -177.9511979 -0.962382E-05  0.127E-03    0.14       7.5  T
  10   -177.9511981 -0.247918E-06  0.822E-04    0.13      11.6  T
  11   -177.9511983 -0.195219E-06  0.161E-04    0.13      59.0  T
     SCC iter.                  ...        0 min,  0.129 sec
     gradient                   ...        0 min,  0.099 sec
 * total energy  :  -175.0521402 Eh     change       -0.3741318E-02 Eh
   gradient norm :     0.0127424 Eh/α   predicted    -0.3562757E-02 (  -4.77%)
   displ. norm   :     0.8663459 α      lambda       -0.3756952E-02
   maximum displ.:     0.3889372 α      in ANC's #12, #7, #9, ...

........................................................................
.............................. CYCLE   28 ..............................
........................................................................

 iter      E             dE          RMSdq      gap      omega  full diag
   1   -177.9577934 -0.177958E+03  0.111E-01    0.14       0.0  T
   2   -177.9576008  0.192554E-03  0.698E-02    0.12       1.0  T
   3   -177.9552505  0.235036E-02  0.108E-01    0.32       1.0  T
   4   -177.9570263 -0.177586E-02  0.524E-02    0.21       1.0  T
   5   -177.9576244 -0.598098E-03  0.257E-02    0.16       1.0  T
   6   -177.9578100 -0.185546E-03  0.319E-03    0.14       3.0  T
   7   -177.9578043  0.561857E-05  0.480E-03    0.14       2.0  T
   8   -177.9578041  0.212555E-06  0.470E-03    0.13       2.0  T
   9   -177.9578109 -0.676558E-05  0.847E-04    0.14      11.2  T
  10   -177.9578109 -0.565092E-07  0.667E-04    0.13      14.2  T
  11   -177.9578111 -0.125524E-06  0.142E-04    0.14      66.8  T
     SCC iter.                  ...        0 min,  0.127 sec
     gradient                   ...        0 min,  0.099 sec
 * total energy  :  -175.0556375 Eh     change       -0.3497334E-02 Eh
   gradient norm :     0.0137632 Eh/α   predicted    -0.3288394E-02 (  -5.97%)
   displ. norm   :     0.8783923 α      lambda       -0.3636301E-02
   maximum displ.:     0.4075221 α      in ANC's #12, #7, #9, ...

........................................................................
.............................. CYCLE   29 ..............................
........................................................................

 iter      E             dE          RMSdq      gap      omega  full diag
   1   -177.9662294 -0.177966E+03  0.114E-01    0.14       0.0  T
   2   -177.9660628  0.166616E-03  0.710E-02    0.12       1.0  T
   3   -177.9637276  0.233513E-02  0.107E-01    0.31       1.0  T
   4   -177.9655293 -0.180167E-02  0.499E-02    0.20       1.0  T
   5   -177.9660917 -0.562429E-03  0.236E-02    0.16       1.0  T
   6   -177.9662458 -0.154082E-03  0.307E-03    0.14       3.1  T
   7   -177.9662414  0.441487E-05  0.438E-03    0.14       2.2  T
   8   -177.9662403  0.113735E-05  0.461E-03    0.13       2.1  T
   9   -177.9662467 -0.640756E-05  0.809E-04    0.14      11.7  T
  10   -177.9662467 -0.688034E-07  0.590E-04    0.14      16.1  T
  11   -177.9662468 -0.944598E-07  0.145E-04    0.14      65.4  T
     SCC iter.                  ...        0 min,  0.129 sec
     gradient                   ...        0 min,  0.099 sec
 * total energy  :  -175.0590376 Eh     change       -0.3400075E-02 Eh
   gradient norm :     0.0108963 Eh/α   predicted    -0.3221033E-02 (  -5.27%)
   displ. norm   :     0.9014379 α      lambda       -0.3467792E-02
   maximum displ.:     0.4183013 α      in ANC's #12, #7, #9, ...

........................................................................
.............................. CYCLE   30 ..............................
........................................................................

 iter      E             dE          RMSdq      gap      omega  full diag
   1   -177.9714481 -0.177971E+03  0.119E-01    0.14       0.0  T
   2   -177.9713256  0.122519E-03  0.729E-02    0.12       1.0  T
   3   -177.9690793  0.224624E-02  0.104E-01    0.30       1.0  T
   4   -177.9709760 -0.189665E-02  0.414E-02    0.19       1.0  T
   5   -177.9714367 -0.460739E-03  0.121E-02    0.14       1.0  T
   6   -177.9714642 -0.274360E-04  0.431E-03    0.14       2.2  T
   7   -177.9714677 -0.349621E-05  0.145E-03    0.14       6.5  T
   8   -177.9714678 -0.118379E-06  0.753E-04    0.14      12.6  T
   9   -177.9714679 -0.789034E-07  0.326E-04    0.14      29.1  T
     SCC iter.                  ...        0 min,  0.107 sec
     gradient                   ...        0 min,  0.099 sec
 * total energy  :  -175.0622850 Eh     change       -0.3247351E-02 Eh
   gradient norm :     0.0085377 Eh/α   predicted    -0.3142844E-02 (  -3.22%)
   displ. norm   :     0.9075120 α      lambda       -0.3351921E-02
   maximum displ.:     0.4346832 α      in ANC's #12, #7, #9, ...

........................................................................
.............................. CYCLE   31 ..............................
........................................................................

 iter      E             dE          RMSdq      gap      omega  full diag
   1   -177.9833763 -0.177983E+03  0.124E-01    0.14       0.0  T
   2   -177.9832872  0.890653E-04  0.748E-02    0.12       1.0  T
   3   -177.9811188  0.216845E-02  0.102E-01    0.29       1.0  T
   4   -177.9831912 -0.207243E-02  0.285E-02    0.17       1.0  T
   5   -177.9833520 -0.160752E-03  0.137E-02    0.13       1.0  T
   6   -177.9833833 -0.313383E-04  0.893E-03    0.14       1.1  T
   7   -177.9834010 -0.177059E-04  0.364E-03    0.13       2.6  T
   8   -177.9834016 -0.550217E-06  0.327E-03    0.14       2.9  T
   9   -177.9834045 -0.290817E-05  0.676E-04    0.14      14.0  T
  10   -177.9834046 -0.106118E-06  0.226E-04    0.14      42.0  T
  11   -177.9834046 -0.955339E-08  0.920E-05    0.14     103.2  T
     SCC iter.                  ...        0 min,  0.129 sec
     gradient                   ...        0 min,  0.098 sec
 * total energy  :  -175.0652632 Eh     change       -0.2978221E-02 Eh
   gradient norm :     0.0111674 Eh/α   predicted    -0.3056248E-02 (   2.62%)
   displ. norm   :     0.9181386 α      lambda       -0.3305368E-02
   maximum displ.:     0.4090316 α      in ANC's #12, #7, #9, ...

........................................................................
.............................. CYCLE   32 ..............................
........................................................................

 iter      E             dE          RMSdq      gap      omega  full diag
   1   -177.9769097 -0.177977E+03  0.124E-01    0.14       0.0  T
   2   -177.9768130  0.967272E-04  0.755E-02    0.12       1.0  T
   3   -177.9746397  0.217326E-02  0.102E-01    0.30       1.0  T
   4   -177.9766725 -0.203274E-02  0.317E-02    0.17       1.0  T
   5   -177.9768964 -0.223940E-03  0.127E-02    0.13       1.0  T
   6   -177.9769215 -0.251109E-04  0.838E-03    0.15       1.1  T
   7   -177.9769361 -0.145903E-04  0.376E-03    0.13       2.5  T
   8   -177.9769356  0.468461E-06  0.383E-03    0.14       2.5  T
   9   -177.9769397 -0.408181E-05  0.856E-04    0.14      11.1  T
  10   -177.9769399 -0.179244E-06  0.265E-04    0.14      35.8  T
  11   -177.9769399 -0.148947E-07  0.869E-05    0.14     109.3  T
     SCC iter.                  ...        0 min,  0.130 sec
     gradient                   ...        0 min,  0.099 sec
 * total energy  :  -175.0680818 Eh     change       -0.2818661E-02 Eh
   gradient norm :     0.0128142 Eh/α   predicted    -0.3045867E-02 (   8.06%)
   displ. norm   :     0.8738065 α      lambda       -0.2780882E-02
   maximum displ.:     0.4021834 α      in ANC's #12, #7, #9, ...

........................................................................
.............................. CYCLE   33 ..............................
........................................................................

 iter      E             dE          RMSdq      gap      omega  full diag
   1   -177.9781653 -0.177978E+03  0.113E-01    0.14       0.0  T
   2   -177.9781041  0.612067E-04  0.676E-02    0.13       1.0  T
   3   -177.9762335  0.187067E-02  0.926E-02    0.28       1.0  T
   4   -177.9780636 -0.183013E-02  0.219E-02    0.16       1.0  T
   5   -177.9781665 -0.102864E-03  0.765E-03    0.13       1.2  T
   6   -177.9781735 -0.702712E-05  0.569E-03    0.14       1.7  T
   7   -177.9781786 -0.509447E-05  0.345E-03    0.14       2.8  T
   8   -177.9781802 -0.159486E-05  0.249E-03    0.14       3.8  T
   9   -177.9781819 -0.171393E-05  0.608E-04    0.14      15.6  T
  10   -177.9781820 -0.964354E-07  0.146E-04    0.14      65.0  T
  11   -177.9781820 -0.326818E-08  0.649E-05    0.14     146.4  T
     SCC iter.                  ...        0 min,  0.129 sec
     gradient                   ...        0 min,  0.099 sec
 * total energy  :  -175.0706664 Eh     change       -0.2584518E-02 Eh
   gradient norm :     0.0105521 Eh/α   predicted    -0.2452095E-02 (  -5.12%)
   displ. norm   :     0.8719874 α      lambda       -0.2821858E-02
   maximum displ.:     0.3857807 α      in ANC's #12, #7, #9, ...

........................................................................
.............................. CYCLE   34 ..............................
........................................................................

 iter      E             dE          RMSdq      gap      omega  full diag
   1   -177.9928393 -0.177993E+03  0.111E-01    0.14       0.0  T
   2   -177.9926872  0.152071E-03  0.690E-02    0.12       1.0  T
   3   -177.9904509  0.223635E-02  0.105E-01    0.31       1.0  T
   4   -177.9923053 -0.185442E-02  0.447E-02    0.20       1.0  T
   5   -177.9927926 -0.487280E-03  0.164E-02    0.15       1.0  T
   6   -177.9928588 -0.661941E-04  0.318E-03    0.14       3.0  T
   7   -177.9928585  0.249979E-06  0.255E-03    0.14       3.7  T
   8   -177.9928588 -0.312565E-06  0.200E-03    0.14       4.8  T
   9   -177.9928595 -0.696587E-06  0.121E-03    0.14       7.9  T
  10   -177.9928598 -0.307107E-06  0.658E-04    0.14      14.4  T
  11   -177.9928600 -0.132531E-06  0.881E-05    0.14     107.7  T
     SCC iter.                  ...        0 min,  0.129 sec
     gradient                   ...        0 min,  0.099 sec
 * total energy  :  -175.0731664 Eh     change       -0.2500062E-02 Eh
   gradient norm :     0.0072436 Eh/α   predicted    -0.2483757E-02 (  -0.65%)
   displ. norm   :     0.9245197 α      lambda       -0.2626522E-02
   maximum displ.:     0.3906294 α      in ANC's #7, #12, #9, ...

........................................................................
.............................. CYCLE   35 ..............................
........................................................................

 iter      E             dE          RMSdq      gap      omega  full diag
   1   -177.9870994 -0.177987E+03  0.122E-01    0.14       0.0  T
   2   -177.9870698  0.296435E-04  0.725E-02    0.13       1.0  T
   3   -177.9853828  0.168696E-02  0.859E-02    0.26       1.0  T
   4   -177.9871030 -0.172021E-02  0.109E-02    0.14       1.0  T
   5   -177.9871201 -0.170770E-04  0.400E-03    0.14       2.4  T
   6   -177.9871204 -0.250152E-06  0.280E-03    0.14       3.4  T
   7   -177.9871208 -0.459693E-06  0.221E-03    0.14       4.3  T
   8   -177.9871215 -0.728609E-06  0.130E-03    0.14       7.3  T
   9   -177.9871219 -0.381226E-06  0.498E-04    0.14      19.1  T
  10   -177.9871220 -0.577546E-07  0.229E-04    0.14      41.5  T
     SCC iter.                  ...        0 min,  0.116 sec
     gradient                   ...        0 min,  0.099 sec
 * total energy  :  -175.0753652 Eh     change       -0.2198778E-02 Eh
   gradient norm :     0.0130719 Eh/α   predicted    -0.2435756E-02 (  10.78%)
   displ. norm   :     0.8507995 α      lambda       -0.2392290E-02
   maximum displ.:     0.3750767 α      in ANC's #7, #12, #9, ...

........................................................................
.............................. CYCLE   36 ..............................
........................................................................

 iter      E             dE          RMSdq      gap      omega  full diag
   1   -177.9863578 -0.177986E+03  0.107E-01    0.14       0.0  T
   2   -177.9863592 -0.134022E-05  0.627E-02    0.14       1.0  T
   3   -177.9856375  0.721603E-03  0.537E-02    0.20       1.0  T
   4   -177.9861982 -0.560613E-03  0.263E-02    0.12       1.0  T
   5   -177.9863479 -0.149766E-03  0.980E-03    0.15       1.0  T
   6   -177.9863708 -0.228869E-04  0.312E-03    0.14       3.0  T
   7   -177.9863725 -0.164435E-05  0.139E-03    0.14       6.9  T
   8   -177.9863724  0.220558E-07  0.105E-03    0.14       9.0  T
   9   -177.9863727 -0.308558E-06  0.302E-04    0.14      31.5  T
  10   -177.9863728 -0.231331E-07  0.109E-04    0.14      87.1  T
     SCC iter.                  ...        0 min,  0.116 sec
     gradient                   ...        0 min,  0.099 sec
 * total energy  :  -175.0773650 Eh     change       -0.1999839E-02 Eh
   gradient norm :     0.0102208 Eh/α   predicted    -0.2061988E-02 (   3.11%)
   displ. norm   :     0.8336466 α      lambda       -0.2103014E-02
   maximum displ.:     0.3634090 α      in ANC's #7, #12, #9, ...

........................................................................
.............................. CYCLE   37 ..............................
........................................................................

 iter      E             dE          RMSdq      gap      omega  full diag
   1   -177.9935650 -0.177994E+03  0.102E-01    0.14       0.0  T
   2   -177.9935652 -0.195675E-06  0.597E-02    0.14       1.0  T
   3   -177.9929524  0.612841E-03  0.485E-02    0.19       1.0  T
   4   -177.9934129 -0.460515E-03  0.264E-02    0.13       1.0  T
   5   -177.9935644 -0.151518E-03  0.786E-03    0.15       1.2  T
   6   -177.9935769 -0.124750E-04  0.241E-03    0.14       3.9  T
   7   -177.9935761  0.816137E-06  0.254E-03    0.14       3.7  T
   8   -177.9935780 -0.196340E-05  0.769E-04    0.14      12.4  T
   9   -177.9935781 -0.723329E-07  0.349E-04    0.14      27.2  T
  10   -177.9935781 -0.311911E-07  0.104E-04    0.14      91.0  T
     SCC iter.                  ...        0 min,  0.117 sec
     gradient                   ...        0 min,  0.098 sec
 * total energy  :  -175.0791080 Eh     change       -0.1742990E-02 Eh
   gradient norm :     0.0111212 Eh/α   predicted    -0.1782279E-02 (   2.25%)
   displ. norm   :     0.8348497 α      lambda       -0.1948693E-02
   maximum displ.:     0.3756227 α      in ANC's #7, #12, #8, ...

........................................................................
.............................. CYCLE   38 ..............................
........................................................................

 iter      E             dE          RMSdq      gap      omega  full diag
   1   -178.0011136 -0.178001E+03  0.111E-01    0.14       0.0  T
   2   -178.0010784  0.352060E-04  0.662E-02    0.13       1.0  T
   3   -177.9992543  0.182404E-02  0.888E-02    0.25       1.0  T
   4   -178.0011061 -0.185179E-02  0.111E-02    0.14       1.0  T
   5   -178.0011080 -0.190019E-05  0.905E-03    0.15       1.0  T
   6   -178.0011199 -0.118986E-04  0.611E-03    0.14       1.6  T
   7   -178.0011307 -0.107974E-04  0.125E-03    0.14       7.6  T
   8   -178.0011307  0.321450E-09  0.697E-04    0.14      13.6  T
   9   -178.0011308 -0.120016E-06  0.228E-04    0.14      41.7  T
     SCC iter.                  ...        0 min,  0.105 sec
     gradient                   ...        0 min,  0.098 sec
 * total energy  :  -175.0805487 Eh     change       -0.1440652E-02 Eh
   gradient norm :     0.0137975 Eh/α   predicted    -0.1653443E-02 (  14.77%)
   displ. norm   :     0.7941388 α      lambda       -0.1692512E-02
   maximum displ.:     0.3655201 α      in ANC's #7, #8, #12, ...

........................................................................
.............................. CYCLE   39 ..............................
........................................................................

 iter      E             dE          RMSdq      gap      omega  full diag
   1   -177.9922137 -0.177992E+03  0.103E-01    0.14       0.0  T
   2   -177.9921909  0.227869E-04  0.610E-02    0.14       1.0  T
   3   -177.9907097  0.148118E-02  0.805E-02    0.22       1.0  T
   4   -177.9919583 -0.124859E-02  0.304E-02    0.12       1.0  T
   5   -177.9921441 -0.185813E-03  0.179E-02    0.16       1.0  T
   6   -177.9922282 -0.840726E-04  0.500E-03    0.14       1.9  T
   7   -177.9922338 -0.566030E-05  0.150E-03    0.14       6.3  T
   8   -177.9922340 -0.173136E-06  0.823E-04    0.14      11.5  T
   9   -177.9922341 -0.104316E-06  0.350E-04    0.14      27.1  T
     SCC iter.                  ...        0 min,  0.105 sec
     gradient                   ...        0 min,  0.098 sec
 * total energy  :  -175.0816748 Eh     change       -0.1126148E-02 Eh
   gradient norm :     0.0128222 Eh/α   predicted    -0.1379954E-02 (  22.54%)
   displ. norm   :     0.6455692 α      lambda       -0.1469028E-02
   maximum displ.:     0.3112630 α      in ANC's #7, #8, #6, ...

........................................................................
.............................. CYCLE   40 ..............................
........................................................................

 iter      E             dE          RMSdq      gap      omega  full diag
   1   -178.0055498 -0.178006E+03  0.851E-02    0.14       0.0  T
   2   -178.0053565  0.193314E-03  0.565E-02    0.12       1.0  T
   3   -178.0033174  0.203911E-02  0.101E-01    0.28       1.0  T
   4   -178.0050539 -0.173659E-02  0.430E-02    0.19       1.0  T
   5   -178.0054840 -0.430010E-03  0.180E-02    0.15       1.0  T
   6   -178.0055669 -0.828917E-04  0.318E-03    0.14       3.0  T
   7   -178.0055681 -0.128316E-05  0.203E-03    0.14       4.7  T
   8   -178.0055679  0.259461E-06  0.174E-03    0.14       5.5  T
   9   -178.0055687 -0.812213E-06  0.589E-04    0.14      16.1  T
  10   -178.0055688 -0.770537E-07  0.286E-04    0.14      33.2  T
     SCC iter.                  ...        0 min,  0.115 sec
     gradient                   ...        0 min,  0.098 sec
 * total energy  :  -175.0826754 Eh     change       -0.1000629E-02 Eh
   gradient norm :     0.0122220 Eh/α   predicted    -0.1040631E-02 (   4.00%)
   displ. norm   :     0.6885987 α      lambda       -0.1117325E-02
   maximum displ.:     0.3449370 α      in ANC's #7, #8, #6, ...

........................................................................
.............................. CYCLE   41 ..............................
........................................................................

 iter      E             dE          RMSdq      gap      omega  full diag
   1   -178.0047209 -0.178005E+03  0.904E-02    0.14       0.0  T
   2   -178.0046650  0.559229E-04  0.549E-02    0.13       1.0  T
   3   -178.0028803  0.178468E-02  0.899E-02    0.24       1.0  T
   4   -178.0046417 -0.176143E-02  0.180E-02    0.13       1.0  T
   5   -178.0046604 -0.187128E-04  0.168E-02    0.16       1.0  T
   6   -178.0047324 -0.719329E-04  0.349E-03    0.14       2.7  T
   7   -178.0047339 -0.154285E-05  0.180E-03    0.14       5.3  T
   8   -178.0047342 -0.330915E-06  0.103E-03    0.14       9.2  T
   9   -178.0047345 -0.263696E-06  0.270E-04    0.14      35.2  T
  10   -178.0047345 -0.983647E-08  0.110E-04    0.14      86.4  T
     SCC iter.                  ...        0 min,  0.117 sec
     gradient                   ...        0 min,  0.098 sec
 * total energy  :  -175.0835526 Eh     change       -0.8771120E-03 Eh
   gradient norm :     0.0106725 Eh/α   predicted    -0.8235650E-03 (  -6.10%)
   displ. norm   :     0.6720041 α      lambda       -0.1092665E-02
   maximum displ.:     0.3494367 α      in ANC's #7, #8, #5, ...

........................................................................
.............................. CYCLE   42 ..............................
........................................................................

 iter      E             dE          RMSdq      gap      omega  full diag
   1   -178.0146746 -0.178015E+03  0.900E-02    0.14       0.0  T
   2   -178.0143396  0.334997E-03  0.640E-02    0.12       1.0  T
   3   -178.0123739  0.196572E-02  0.105E-01    0.29       1.0  T
   4   -178.0142537 -0.187976E-02  0.427E-02    0.17       1.0  T
   5   -178.0146460 -0.392360E-03  0.155E-02    0.15       1.0  T
   6   -178.0146771 -0.310978E-04  0.105E-02    0.15       1.0  T
   7   -178.0147023 -0.251743E-04  0.295E-03    0.14       3.2  T
   8   -178.0147013  0.101236E-05  0.292E-03    0.14       3.2  T
   9   -178.0147032 -0.191937E-05  0.123E-03    0.14       7.7  T
  10   -178.0147036 -0.425006E-06  0.323E-04    0.14      29.4  T
  11   -178.0147037 -0.176983E-07  0.138E-04    0.14      68.7  T
     SCC iter.                  ...        0 min,  0.128 sec
     gradient                   ...        0 min,  0.099 sec
 * total energy  :  -175.0844549 Eh     change       -0.9023454E-03 Eh
   gradient norm :     0.0095804 Eh/α   predicted    -0.7930517E-03 ( -12.11%)
   displ. norm   :     0.7224357 α      lambda       -0.1245340E-02
   maximum displ.:     0.3817869 α      in ANC's #7, #8, #5, ...
 * RMSD in coord.:     1.4858454 α      energy gain  -0.5993316E-01 Eh

generating ANC from exact Hessian ...
Using Lindh-Hessian (1995)
 Shifting diagonal of input Hessian by    1.0007584371691140E-002
 Lowest  eigenvalues of input Hessian
    0.000000    0.010000    0.000000    0.000000    0.000000    0.000000
    0.000000    0.010043    0.010059    0.010080    0.010129    0.010241
    0.010270    0.010382    0.010467    0.010620    0.010690    0.011053
 Highest eigenvalues
    2.180624    2.218548    2.259891    2.274099    2.285692    2.302240


........................................................................
.............................. CYCLE   43 ..............................
........................................................................

 iter      E             dE          RMSdq      gap      omega  full diag
   1   -178.0089102 -0.178009E+03  0.102E-01    0.14       0.0  T
   2   -178.0086536  0.256626E-03  0.679E-02    0.13       1.0  T
   3   -178.0064763  0.217728E-02  0.109E-01    0.30       1.0  T
   4   -178.0087175 -0.224121E-02  0.323E-02    0.16       1.0  T
   5   -178.0089060 -0.188494E-03  0.141E-02    0.15       1.0  T
   6   -178.0089454 -0.393436E-04  0.489E-03    0.14       1.9  T
   7   -178.0089365  0.888288E-05  0.791E-03    0.15       1.2  T
   8   -178.0089497 -0.132244E-04  0.316E-03    0.14       3.0  T
   9   -178.0089521 -0.240681E-05  0.104E-03    0.14       9.1  T
  10   -178.0089524 -0.258407E-06  0.344E-04    0.14      27.6  T
  11   -178.0089524 -0.280385E-07  0.893E-05    0.14     106.3  T
     SCC iter.                  ...        0 min,  0.128 sec
     gradient                   ...        0 min,  0.098 sec
 * total energy  :  -175.0854362 Eh     change       -0.9813374E-03 Eh
   gradient norm :     0.0114519 Eh/α   predicted     0.0000000E+00 (-100.00%)
   displ. norm   :     0.1643234 α      lambda       -0.5782492E-03
   maximum displ.:     0.0807927 α      in ANC's #8, #16, #10, ...

........................................................................
.............................. CYCLE   44 ..............................
........................................................................

 iter      E             dE          RMSdq      gap      omega  full diag
   1   -178.0093229 -0.178009E+03  0.347E-02    0.14       0.0  T
   2   -178.0093245 -0.162976E-05  0.204E-02    0.14       1.0  T
   3   -178.0093146  0.993284E-05  0.826E-03    0.14       1.1  T
   4   -178.0093224 -0.780751E-05  0.373E-03    0.14       2.5  T
   5   -178.0093220  0.373604E-06  0.372E-03    0.14       2.6  T
   6   -178.0093241 -0.209600E-05  0.223E-03    0.14       4.3  T
   7   -178.0093255 -0.140512E-05  0.583E-04    0.14      16.3  T
   8   -178.0093256 -0.406531E-07  0.282E-04    0.14      33.7  T
   9   -178.0093256 -0.115926E-07  0.747E-05    0.14     127.0  T
     SCC iter.                  ...        0 min,  0.105 sec
     gradient                   ...        0 min,  0.098 sec
 * total energy  :  -175.0859118 Eh     change       -0.4755891E-03 Eh
   gradient norm :     0.0050995 Eh/α   predicted    -0.2969339E-03 ( -37.57%)
   displ. norm   :     0.4394955 α      lambda       -0.9767314E-03
   maximum displ.:     0.2203084 α      in ANC's #8, #16, #10, ...

........................................................................
.............................. CYCLE   45 ..............................
........................................................................

 iter      E             dE          RMSdq      gap      omega  full diag
   1   -178.0075761 -0.178008E+03  0.775E-02    0.14       0.0  T
   2   -178.0075736  0.244916E-05  0.453E-02    0.14       1.0  T
   3   -178.0068975  0.676091E-03  0.518E-02    0.20       1.0  T
   4   -178.0075082 -0.610682E-03  0.183E-02    0.13       1.0  T
   5   -178.0075732 -0.649720E-04  0.732E-03    0.15       1.3  T
   6   -178.0075849 -0.117353E-04  0.241E-03    0.14       3.9  T
   7   -178.0075857 -0.745690E-06  0.134E-03    0.14       7.1  T
   8   -178.0075858 -0.966328E-07  0.101E-03    0.14       9.4  T
   9   -178.0075861 -0.307035E-06  0.167E-04    0.14      56.9  T
  10   -178.0075861 -0.472235E-08  0.629E-05    0.14     150.9  T
     SCC iter.                  ...        0 min,  0.117 sec
     gradient                   ...        0 min,  0.098 sec
 * total energy  :  -175.0866271 Eh     change       -0.7153001E-03 Eh
   gradient norm :     0.0084659 Eh/α   predicted    -0.5827363E-03 ( -18.53%)
   displ. norm   :     0.4552727 α      lambda       -0.6696938E-03
   maximum displ.:     0.2415887 α      in ANC's #8, #16, #10, ...

........................................................................
.............................. CYCLE   46 ..............................
........................................................................

 iter      E             dE          RMSdq      gap      omega  full diag
   1   -178.0053550 -0.178005E+03  0.734E-02    0.14       0.0  T
   2   -178.0053305  0.244556E-04  0.438E-02    0.13       1.0  T
   3   -178.0040485  0.128204E-02  0.735E-02    0.23       1.0  T
   4   -178.0053457 -0.129719E-02  0.864E-03    0.14       1.1  T
   5   -178.0053518 -0.608457E-05  0.624E-03    0.15       1.5  T
   6   -178.0053600 -0.825051E-05  0.300E-03    0.14       3.2  T
   7   -178.0053625 -0.243517E-05  0.821E-04    0.14      11.6  T
   8   -178.0053625 -0.106672E-07  0.539E-04    0.14      17.6  T
   9   -178.0053625 -0.680009E-07  0.120E-04    0.14      78.8  T
     SCC iter.                  ...        0 min,  0.105 sec
     gradient                   ...        0 min,  0.098 sec
 * total energy  :  -175.0871806 Eh     change       -0.5534214E-03 Eh
   gradient norm :     0.0124483 Eh/α   predicted    -0.4042521E-03 ( -26.95%)
   displ. norm   :     0.5432790 α      lambda       -0.8237811E-03
   maximum displ.:     0.2986740 α      in ANC's #8, #16, #10, ...

........................................................................
.............................. CYCLE   47 ..............................
........................................................................

 iter      E             dE          RMSdq      gap      omega  full diag
   1   -178.0044661 -0.178004E+03  0.829E-02    0.14       0.0  T
   2   -178.0043962  0.699187E-04  0.511E-02    0.13       1.0  T
   3   -178.0025903  0.180587E-02  0.906E-02    0.26       1.0  T
   4   -178.0044043 -0.181400E-02  0.174E-02    0.15       1.0  T
   5   -178.0044610 -0.567386E-04  0.818E-03    0.15       1.2  T
   6   -178.0044717 -0.106769E-04  0.489E-03    0.14       1.9  T
   7   -178.0044782 -0.651303E-05  0.170E-03    0.14       5.6  T
   8   -178.0044784 -0.200896E-06  0.822E-04    0.14      11.5  T
   9   -178.0044786 -0.169171E-06  0.362E-04    0.14      26.2  T
     SCC iter.                  ...        0 min,  0.104 sec
     gradient                   ...        0 min,  0.098 sec
 * total energy  :  -175.0878951 Eh     change       -0.7145550E-03 Eh
   gradient norm :     0.0111108 Eh/α   predicted    -0.5334624E-03 ( -25.34%)
   displ. norm   :     0.6211428 α      lambda       -0.9495901E-03
   maximum displ.:     0.3556683 α      in ANC's #8, #10, #16, ...

........................................................................
.............................. CYCLE   48 ..............................
........................................................................

 iter      E             dE          RMSdq      gap      omega  full diag
   1   -178.0060789 -0.178006E+03  0.907E-02    0.14       0.0  T
   2   -178.0059736  0.105256E-03  0.570E-02    0.13       1.0  T
   3   -178.0039777  0.199586E-02  0.975E-02    0.27       1.0  T
   4   -178.0060110 -0.203321E-02  0.193E-02    0.14       1.0  T
   5   -178.0060503 -0.393144E-04  0.138E-02    0.15       1.0  T
   6   -178.0060980 -0.477178E-04  0.328E-03    0.14       2.9  T
   7   -178.0060995 -0.148715E-05  0.218E-03    0.14       4.3  T
   8   -178.0060997 -0.203085E-06  0.122E-03    0.14       7.8  T
   9   -178.0061000 -0.330507E-06  0.624E-04    0.14      15.2  T
  10   -178.0061001 -0.105841E-06  0.138E-04    0.14      68.8  T
     SCC iter.                  ...        0 min,  0.116 sec
     gradient                   ...        0 min,  0.098 sec
 * total energy  :  -175.0887000 Eh     change       -0.8049226E-03 Eh
   gradient norm :     0.0071297 Eh/α   predicted    -0.6579857E-03 ( -18.25%)
   displ. norm   :     0.6944292 α      lambda       -0.8694222E-03
   maximum displ.:     0.4026997 α      in ANC's #8, #10, #4, ...

........................................................................
.............................. CYCLE   49 ..............................
........................................................................

 iter      E             dE          RMSdq      gap      omega  full diag
   1   -178.0062531 -0.178006E+03  0.977E-02    0.14       0.0  T
   2   -178.0061219  0.131237E-03  0.617E-02    0.13       1.0  T
   3   -178.0039652  0.215668E-02  0.103E-01    0.28       1.0  T
   4   -178.0061481 -0.218288E-02  0.234E-02    0.15       1.0  T
   5   -178.0062657 -0.117579E-03  0.757E-03    0.15       1.3  T
   6   -178.0062703 -0.468449E-05  0.531E-03    0.14       1.8  T
   7   -178.0062734 -0.304176E-05  0.471E-03    0.14       2.0  T
   8   -178.0062783 -0.486547E-05  0.131E-03    0.14       7.2  T
   9   -178.0062787 -0.399069E-06  0.650E-04    0.14      14.6  T
  10   -178.0062788 -0.109318E-06  0.192E-04    0.14      49.4  T
     SCC iter.                  ...        0 min,  0.116 sec
     gradient                   ...        0 min,  0.098 sec
 * total energy  :  -175.0894661 Eh     change       -0.7660506E-03 Eh
   gradient norm :     0.0066758 Eh/α   predicted    -0.6443537E-03 ( -15.89%)
   displ. norm   :     0.7039716 α      lambda       -0.8672057E-03
   maximum displ.:     0.4207240 α      in ANC's #8, #10, #4, ...

........................................................................
.............................. CYCLE   50 ..............................
........................................................................

 iter      E             dE          RMSdq      gap      omega  full diag
   1   -178.0095585 -0.178010E+03  0.968E-02    0.14       0.0  T
   2   -178.0094346  0.123948E-03  0.609E-02    0.13       1.0  T
   3   -178.0073222  0.211239E-02  0.102E-01    0.29       1.0  T
   4   -178.0094310 -0.210885E-02  0.247E-02    0.16       1.0  T
   5   -178.0095787 -0.147709E-03  0.460E-03    0.14       2.1  T
   6   -178.0095697  0.906292E-05  0.724E-03    0.15       1.3  T
   7   -178.0095821 -0.124529E-04  0.155E-03    0.14       6.1  T
   8   -178.0095821  0.647890E-07  0.120E-03    0.14       7.9  T
   9   -178.0095824 -0.312851E-06  0.646E-04    0.14      14.7  T
  10   -178.0095825 -0.116794E-06  0.150E-04    0.14      63.1  T
     SCC iter.                  ...        0 min,  0.117 sec
     gradient                   ...        0 min,  0.098 sec
 * total energy  :  -175.0902282 Eh     change       -0.7620954E-03 Eh
   gradient norm :     0.0067727 Eh/α   predicted    -0.6484868E-03 ( -14.91%)
   displ. norm   :     0.7651150 α      lambda       -0.8462173E-03
   maximum displ.:     0.4562069 α      in ANC's #8, #10, #7, ...

........................................................................
.............................. CYCLE   51 ..............................
........................................................................

 iter      E             dE          RMSdq      gap      omega  full diag
   1   -178.0077888 -0.178008E+03  0.103E-01    0.14       0.0  T
   2   -178.0076707  0.118101E-03  0.637E-02    0.13       1.0  T
   3   -178.0054896  0.218114E-02  0.103E-01    0.30       1.0  T
   4   -178.0076011 -0.211154E-02  0.284E-02    0.17       1.0  T
   5   -178.0077897 -0.188638E-03  0.921E-03    0.14       1.0  T
   6   -178.0077918 -0.209612E-05  0.868E-03    0.15       1.1  T
   7   -178.0078110 -0.191250E-04  0.143E-03    0.14       6.6  T
   8   -178.0078108  0.105448E-06  0.911E-04    0.14      10.4  T
   9   -178.0078110 -0.164029E-06  0.475E-04    0.14      20.0  T
     SCC iter.                  ...        0 min,  0.106 sec
     gradient                   ...        0 min,  0.099 sec
 * total energy  :  -175.0909689 Eh     change       -0.7407661E-03 Eh
   gradient norm :     0.0073373 Eh/α   predicted    -0.6707989E-03 (  -9.45%)
   displ. norm   :     0.7250942 α      lambda       -0.8873441E-03
   maximum displ.:     0.4485774 α      in ANC's #8, #7, #10, ...

........................................................................
.............................. CYCLE   52 ..............................
........................................................................

 iter      E             dE          RMSdq      gap      omega  full diag
   1   -178.0143348 -0.178014E+03  0.970E-02    0.14       0.0  T
   2   -178.0142161  0.118670E-03  0.603E-02    0.13       1.0  T
   3   -178.0122019  0.201420E-02  0.995E-02    0.30       1.0  T
   4   -178.0140117 -0.180980E-02  0.356E-02    0.18       1.0  T
   5   -178.0143188 -0.307063E-03  0.118E-02    0.15       1.0  T
   6   -178.0143465 -0.277339E-04  0.478E-03    0.15       2.0  T
   7   -178.0143512 -0.467314E-05  0.131E-03    0.14       7.2  T
   8   -178.0143512 -0.318367E-07  0.761E-04    0.14      12.5  T
   9   -178.0143512 -0.382874E-07  0.569E-04    0.14      16.7  T
     SCC iter.                  ...        0 min,  0.105 sec
     gradient                   ...        0 min,  0.098 sec
 * total energy  :  -175.0916879 Eh     change       -0.7189262E-03 Eh
   gradient norm :     0.0079141 Eh/α   predicted    -0.6769408E-03 (  -5.84%)
   displ. norm   :     0.7791557 α      lambda       -0.7490439E-03
   maximum displ.:     0.4806482 α      in ANC's #8, #7, #10, ...

........................................................................
.............................. CYCLE   53 ..............................
........................................................................

 iter      E             dE          RMSdq      gap      omega  full diag
   1   -178.0093631 -0.178009E+03  0.100E-01    0.14       0.0  T
   2   -178.0092747  0.884377E-04  0.610E-02    0.13       1.0  T
   3   -178.0073345  0.194012E-02  0.962E-02    0.30       1.0  T
   4   -178.0091353 -0.180072E-02  0.301E-02    0.17       1.0  T
   5   -178.0093620 -0.226750E-03  0.832E-03    0.15       1.1  T
   6   -178.0093741 -0.120774E-04  0.398E-03    0.15       2.4  T
   7   -178.0093769 -0.284276E-05  0.153E-03    0.14       6.2  T
   8   -178.0093772 -0.289094E-06  0.687E-04    0.14      13.8  T
   9   -178.0093773 -0.683005E-07  0.397E-04    0.14      23.9  T
     SCC iter.                  ...        0 min,  0.105 sec
     gradient                   ...        0 min,  0.098 sec
 * total energy  :  -175.0923396 Eh     change       -0.6517397E-03 Eh
   gradient norm :     0.0075694 Eh/α   predicted    -0.6018883E-03 (  -7.65%)
   displ. norm   :     0.7104775 α      lambda       -0.7107938E-03
   maximum displ.:     0.4523532 α      in ANC's #8, #7, #5, ...

........................................................................
.............................. CYCLE   54 ..............................
........................................................................

 iter      E             dE          RMSdq      gap      omega  full diag
   1   -178.0117228 -0.178012E+03  0.872E-02    0.15       0.0  T
   2   -178.0115897  0.133079E-03  0.548E-02    0.13       1.0  T
   3   -178.0098709  0.171877E-02  0.935E-02    0.29       1.0  T
   4   -178.0112908 -0.141989E-02  0.404E-02    0.20       1.0  T
   5   -178.0116100 -0.319211E-03  0.215E-02    0.16       1.0  T
   6   -178.0117293 -0.119222E-03  0.453E-03    0.15       2.1  T
   7   -178.0117329 -0.368952E-05  0.167E-03    0.14       5.7  T
   8   -178.0117325  0.398899E-06  0.176E-03    0.14       5.4  T
   9   -178.0117334 -0.843900E-06  0.316E-04    0.14      30.1  T
  10   -178.0117334  0.186727E-07  0.387E-04    0.14      24.5  T
     SCC iter.                  ...        0 min,  0.117 sec
     gradient                   ...        0 min,  0.098 sec
 * total energy  :  -175.0929498 Eh     change       -0.6101797E-03 Eh
   gradient norm :     0.0058204 Eh/α   predicted    -0.5347977E-03 ( -12.35%)
   displ. norm   :     0.7441454 α      lambda       -0.7282511E-03
   maximum displ.:     0.4808309 α      in ANC's #8, #7, #5, ...

........................................................................
.............................. CYCLE   55 ..............................
........................................................................

 iter      E             dE          RMSdq      gap      omega  full diag
   1   -178.0127222 -0.178013E+03  0.897E-02    0.15       0.0  T
   2   -178.0126169  0.105238E-03  0.554E-02    0.13       1.0  T
   3   -178.0110278  0.158918E-02  0.894E-02    0.27       1.0  T
   4   -178.0123940 -0.136624E-02  0.351E-02    0.19       1.0  T
   5   -178.0126754 -0.281382E-03  0.152E-02    0.16       1.0  T
   6   -178.0127324 -0.569893E-04  0.329E-03    0.14       2.9  T
   7   -178.0127328 -0.413803E-06  0.268E-03    0.15       3.5  T
   8   -178.0127338 -0.102929E-05  0.161E-03    0.14       5.9  T
   9   -178.0127345 -0.653585E-06  0.499E-04    0.14      19.0  T
  10   -178.0127345 -0.512830E-07  0.248E-04    0.14      38.2  T
     SCC iter.                  ...        0 min,  0.116 sec
     gradient                   ...        0 min,  0.098 sec
 * total energy  :  -175.0935231 Eh     change       -0.5733400E-03 Eh
   gradient norm :     0.0083366 Eh/α   predicted    -0.5657623E-03 (  -1.32%)
   displ. norm   :     0.6872079 α      lambda       -0.6565158E-03
   maximum displ.:     0.4561014 α      in ANC's #8, #7, #5, ...

........................................................................
.............................. CYCLE   56 ..............................
........................................................................

 iter      E             dE          RMSdq      gap      omega  full diag
   1   -178.0143913 -0.178014E+03  0.829E-02    0.15       0.0  T
   2   -178.0143446  0.466992E-04  0.496E-02    0.13       1.0  T
   3   -178.0130094  0.133515E-02  0.787E-02    0.26       1.0  T
   4   -178.0142546 -0.124523E-02  0.232E-02    0.17       1.0  T
   5   -178.0143900 -0.135391E-03  0.672E-03    0.15       1.4  T
   6   -178.0143993 -0.926660E-05  0.193E-03    0.14       4.9  T
   7   -178.0143996 -0.301940E-06  0.108E-03    0.14       8.8  T
   8   -178.0143995  0.124956E-06  0.101E-03    0.14       9.4  T
   9   -178.0143997 -0.244944E-06  0.347E-04    0.14      27.4  T
  10   -178.0143997 -0.230746E-07  0.205E-04    0.14      46.3  T
     SCC iter.                  ...        0 min,  0.116 sec
     gradient                   ...        0 min,  0.098 sec
 * total energy  :  -175.0940765 Eh     change       -0.5533419E-03 Eh
   gradient norm :     0.0076404 Eh/α   predicted    -0.4832797E-03 ( -12.66%)
   displ. norm   :     0.7475905 α      lambda       -0.6241578E-03
   maximum displ.:     0.4975120 α      in ANC's #8, #7, #4, ...

........................................................................
.............................. CYCLE   57 ..............................
........................................................................

 iter      E             dE          RMSdq      gap      omega  full diag
   1   -178.0134960 -0.178013E+03  0.884E-02    0.15       0.0  T
   2   -178.0134599  0.360908E-04  0.525E-02    0.13       1.0  T
   3   -178.0121172  0.134268E-02  0.778E-02    0.26       1.0  T
   4   -178.0134110 -0.129381E-02  0.187E-02    0.16       1.0  T
   5   -178.0135000 -0.889922E-04  0.428E-03    0.14       2.2  T
   6   -178.0135030 -0.303614E-05  0.203E-03    0.14       4.7  T
   7   -178.0135033 -0.259045E-06  0.128E-03    0.14       7.4  T
   8   -178.0135036 -0.277160E-06  0.501E-04    0.14      18.9  T
   9   -178.0135036 -0.334648E-07  0.334E-04    0.14      28.4  T
     SCC iter.                  ...        0 min,  0.104 sec
     gradient                   ...        0 min,  0.098 sec
 * total energy  :  -175.0946397 Eh     change       -0.5631967E-03 Eh
   gradient norm :     0.0076937 Eh/α   predicted    -0.4865014E-03 ( -13.62%)
   displ. norm   :     0.7431796 α      lambda       -0.7256769E-03
   maximum displ.:     0.4996596 α      in ANC's #8, #7, #4, ...

........................................................................
.............................. CYCLE   58 ..............................
........................................................................

 iter      E             dE          RMSdq      gap      omega  full diag
   1   -178.0207195 -0.178021E+03  0.893E-02    0.15       0.0  T
   2   -178.0206650  0.545428E-04  0.535E-02    0.13       1.0  T
   3   -178.0192577  0.140729E-02  0.812E-02    0.26       1.0  T
   4   -178.0205258 -0.126812E-02  0.268E-02    0.18       1.0  T
   5   -178.0207071 -0.181336E-03  0.945E-03    0.15       1.0  T
   6   -178.0207274 -0.202567E-04  0.256E-03    0.14       3.7  T
   7   -178.0207283 -0.851363E-06  0.145E-03    0.14       6.5  T
   8   -178.0207282  0.932489E-07  0.132E-03    0.14       7.2  T
   9   -178.0207286 -0.459300E-06  0.246E-04    0.14      38.5  T
  10   -178.0207286 -0.558532E-08  0.183E-04    0.14      51.9  T
     SCC iter.                  ...        0 min,  0.116 sec
     gradient                   ...        0 min,  0.098 sec
 * total energy  :  -175.0952580 Eh     change       -0.6183086E-03 Eh
   gradient norm :     0.0074133 Eh/α   predicted    -0.5632436E-03 (  -8.91%)
   displ. norm   :     0.8384776 α      lambda       -0.7373103E-03
   maximum displ.:     0.5643126 α      in ANC's #8, #7, #4, ...

........................................................................
.............................. CYCLE   59 ..............................
........................................................................

 iter      E             dE          RMSdq      gap      omega  full diag
   1   -178.0114304 -0.178011E+03  0.103E-01    0.14       0.0  T
   2   -178.0114311 -0.669086E-06  0.604E-02    0.14       1.0  T
   3   -178.0111666  0.264481E-03  0.358E-02    0.16       1.0  T
   4   -178.0112181 -0.514996E-04  0.284E-02    0.12       1.0  T
   5   -178.0114313 -0.213192E-03  0.698E-03    0.15       1.4  T
   6   -178.0114414 -0.101508E-04  0.213E-03    0.14       4.5  T
   7   -178.0114417 -0.322430E-06  0.114E-03    0.14       8.3  T
   8   -178.0114419 -0.190987E-06  0.350E-04    0.14      27.1  T
   9   -178.0114419 -0.126437E-07  0.162E-04    0.14      58.8  T
     SCC iter.                  ...        0 min,  0.105 sec
     gradient                   ...        0 min,  0.098 sec
 * total energy  :  -175.0958590 Eh     change       -0.6010650E-03 Eh
   gradient norm :     0.0083610 Eh/α   predicted    -0.6278415E-03 (   4.45%)
   displ. norm   :     0.6797509 α      lambda       -0.6643277E-03
   maximum displ.:     0.4436896 α      in ANC's #8, #7, #6, ...

........................................................................
.............................. CYCLE   60 ..............................
........................................................................

 iter      E             dE          RMSdq      gap      omega  full diag
   1   -178.0162259 -0.178016E+03  0.797E-02    0.15       0.0  T
   2   -178.0161929  0.329954E-04  0.480E-02    0.14       1.0  T
   3   -178.0149265  0.126643E-02  0.759E-02    0.25       1.0  T
   4   -178.0162254 -0.129888E-02  0.964E-03    0.15       1.0  T
   5   -178.0162317 -0.628181E-05  0.554E-03    0.15       1.7  T
   6   -178.0162346 -0.292841E-05  0.395E-03    0.14       2.4  T
   7   -178.0162386 -0.396640E-05  0.111E-03    0.14       8.5  T
   8   -178.0162387 -0.896395E-07  0.691E-04    0.14      13.7  T
   9   -178.0162388 -0.961294E-07  0.148E-04    0.14      64.2  T
     SCC iter.                  ...        0 min,  0.104 sec
     gradient                   ...        0 min,  0.098 sec
 * total energy  :  -175.0963841 Eh     change       -0.5250582E-03 Eh
   gradient norm :     0.0079299 Eh/α   predicted    -0.4856471E-03 (  -7.51%)
   displ. norm   :     0.7255575 α      lambda       -0.5716554E-03
   maximum displ.:     0.4887429 α      in ANC's #8, #7, #6, ...

........................................................................
.............................. CYCLE   61 ..............................
........................................................................

 iter      E             dE          RMSdq      gap      omega  full diag
   1   -178.0154410 -0.178015E+03  0.866E-02    0.14       0.0  T
   2   -178.0154190  0.219825E-04  0.511E-02    0.14       1.0  T
   3   -178.0142580  0.116100E-02  0.716E-02    0.24       1.0  T
   4   -178.0154323 -0.117427E-02  0.906E-03    0.15       1.0  T
   5   -178.0154478 -0.155560E-04  0.268E-03    0.15       3.5  T
   6   -178.0154455  0.229910E-05  0.354E-03    0.14       2.7  T
   7   -178.0154485 -0.291562E-05  0.145E-03    0.14       6.6  T
   8   -178.0154489 -0.447332E-06  0.320E-04    0.14      29.7  T
   9   -178.0154489 -0.116793E-07  0.189E-04    0.14      50.2  T
     SCC iter.                  ...        0 min,  0.105 sec
     gradient                   ...        0 min,  0.099 sec
 * total energy  :  -175.0968628 Eh     change       -0.4787232E-03 Eh
   gradient norm :     0.0082479 Eh/α   predicted    -0.4363012E-03 (  -8.86%)
   displ. norm   :     0.6769995 α      lambda       -0.6116839E-03
   maximum displ.:     0.4325630 α      in ANC's #8, #7, #9, ...

........................................................................
.............................. CYCLE   62 ..............................
........................................................................

 iter      E             dE          RMSdq      gap      omega  full diag
   1   -178.0222555 -0.178022E+03  0.774E-02    0.15       0.0  T
   2   -178.0221018  0.153655E-03  0.505E-02    0.13       1.0  T
   3   -178.0206050  0.149682E-02  0.890E-02    0.28       1.0  T
   4   -178.0218666 -0.126155E-02  0.389E-02    0.20       1.0  T
   5   -178.0221653 -0.298760E-03  0.197E-02    0.16       1.0  T
   6   -178.0222617 -0.963702E-04  0.471E-03    0.15       2.0  T
   7   -178.0222657 -0.396996E-05  0.188E-03    0.15       5.0  T
   8   -178.0222662 -0.493077E-06  0.101E-03    0.14       9.4  T
   9   -178.0222664 -0.237491E-06  0.242E-04    0.14      39.3  T
  10   -178.0222664  0.414663E-07  0.432E-04    0.14      22.0  T
     SCC iter.                  ...        0 min,  0.117 sec
     gradient                   ...        0 min,  0.099 sec
 * total energy  :  -175.0973499 Eh     change       -0.4870802E-03 Eh
   gradient norm :     0.0066607 Eh/α   predicted    -0.4460233E-03 (  -8.43%)
   displ. norm   :     0.7609380 α      lambda       -0.5421520E-03
   maximum displ.:     0.5116572 α      in ANC's #8, #7, #6, ...

........................................................................
.............................. CYCLE   63 ..............................
........................................................................

 iter      E             dE          RMSdq      gap      omega  full diag
   1   -178.0172733 -0.178017E+03  0.920E-02    0.14       0.0  T
   2   -178.0172720  0.130901E-05  0.538E-02    0.14       1.0  T
   3   -178.0167540  0.518036E-03  0.475E-02    0.19       1.0  T
   4   -178.0170639 -0.309924E-03  0.280E-02    0.12       1.0  T
   5   -178.0172691 -0.205212E-03  0.779E-03    0.15       1.2  T
   6   -178.0172826 -0.134297E-04  0.253E-03    0.15       3.7  T
   7   -178.0172834 -0.794287E-06  0.142E-03    0.14       6.7  T
   8   -178.0172837 -0.374853E-06  0.523E-04    0.14      18.1  T
   9   -178.0172838 -0.504520E-07  0.133E-04    0.14      71.3  T
     SCC iter.                  ...        0 min,  0.106 sec
     gradient                   ...        0 min,  0.099 sec
 * total energy  :  -175.0977576 Eh     change       -0.4077220E-03 Eh
   gradient norm :     0.0074075 Eh/α   predicted    -0.4280371E-03 (   4.98%)
   displ. norm   :     0.5961524 α      lambda       -0.4528189E-03
   maximum displ.:     0.3622771 α      in ANC's #8, #7, #6, ...

........................................................................
.............................. CYCLE   64 ..............................
........................................................................

 iter      E             dE          RMSdq      gap      omega  full diag
   1   -178.0227587 -0.178023E+03  0.760E-02    0.15       0.0  T
   2   -178.0226935  0.652895E-04  0.468E-02    0.13       1.0  T
   3   -178.0213171  0.137636E-02  0.810E-02    0.27       1.0  T
   4   -178.0226186 -0.130146E-02  0.240E-02    0.17       1.0  T
   5   -178.0227642 -0.145625E-03  0.540E-03    0.14       1.8  T
   6   -178.0227688 -0.463914E-05  0.266E-03    0.15       3.6  T
   7   -178.0227700 -0.119219E-05  0.832E-04    0.14      11.4  T
   8   -178.0227700 -0.140636E-07  0.439E-04    0.14      21.6  T
   9   -178.0227701 -0.252740E-07  0.175E-04    0.14      54.3  T
     SCC iter.                  ...        0 min,  0.104 sec
     gradient                   ...        0 min,  0.099 sec
 * total energy  :  -175.0980716 Eh     change       -0.3140098E-03 Eh
   gradient norm :     0.0080812 Eh/α   predicted    -0.3068803E-03 (  -2.27%)
   displ. norm   :     0.6798796 α      lambda       -0.3741858E-03
   maximum displ.:     0.4479427 α      in ANC's #8, #7, #6, ...

........................................................................
.............................. CYCLE   65 ..............................
........................................................................

 iter      E             dE          RMSdq      gap      omega  full diag
   1   -178.0152796 -0.178015E+03  0.773E-02    0.14       0.0  T
   2   -178.0152548  0.248272E-04  0.471E-02    0.15       1.0  T
   3   -177.9963425  0.189123E-01  0.257E-01    0.04       1.0  T
   4   -178.0151353 -0.187928E-01  0.261E-02    0.16       1.0  T
   5   -178.0152542 -0.118916E-03  0.119E-02    0.16       1.0  T
   6   -178.0152721 -0.178919E-04  0.837E-03    0.15       1.1  T
   7   -178.0152859 -0.137754E-04  0.440E-03    0.15       2.2  T
   8   -178.0152905 -0.464271E-05  0.127E-03    0.14       7.5  T
   9   -178.0152909 -0.325933E-06  0.418E-04    0.14      22.7  T
  10   -178.0152909 -0.266966E-07  0.223E-04    0.14      42.6  T
     SCC iter.                  ...        0 min,  0.117 sec
     gradient                   ...        0 min,  0.099 sec
 * total energy  :  -175.0982935 Eh     change       -0.2219107E-03 Eh
   gradient norm :     0.0097023 Eh/α   predicted    -0.2735777E-03 (  23.28%)
   displ. norm   :     0.4451776 α      lambda       -0.4060315E-03
   maximum displ.:     0.2342926 α      in ANC's #8, #6, #9, ...

........................................................................
.............................. CYCLE   66 ..............................
........................................................................

 iter      E             dE          RMSdq      gap      omega  full diag
   1   -178.0239738 -0.178024E+03  0.572E-02    0.15       0.0  T
   2   -178.0239402  0.335692E-04  0.354E-02    0.13       1.0  T
   3   -178.0229309  0.100936E-02  0.669E-02    0.24       1.0  T
   4   -178.0239570 -0.102616E-02  0.105E-02    0.15       1.0  T
   5   -178.0239823 -0.252910E-04  0.271E-03    0.14       3.5  T
   6   -178.0239832 -0.853152E-06  0.162E-03    0.14       5.9  T
   7   -178.0239834 -0.244211E-06  0.102E-03    0.14       9.3  T
   8   -178.0239836 -0.140734E-06  0.512E-04    0.14      18.5  T
   9   -178.0239836 -0.509736E-07  0.150E-04    0.14      63.3  T
     SCC iter.                  ...        0 min,  0.105 sec
     gradient                   ...        0 min,  0.099 sec
 * total energy  :  -175.0985509 Eh     change       -0.2573135E-03 Eh
   gradient norm :     0.0083359 Eh/α   predicted    -0.2432552E-03 (  -5.46%)
   displ. norm   :     0.4799384 α      lambda       -0.3428734E-03
   maximum displ.:     0.2921118 α      in ANC's #8, #6, #7, ...
 * RMSD in coord.:     1.3202243 α      energy gain  -0.1409595E-01 Eh

generating ANC from exact Hessian ...
Using Lindh-Hessian (1995)
 Shifting diagonal of input Hessian by    1.0029179618660504E-002
 Lowest  eigenvalues of input Hessian
    0.010000    0.000000    0.000000    0.000000    0.000000    0.000000
    0.000000    0.010057    0.010079    0.010110    0.010228    0.010277
    0.010331    0.010357    0.010480    0.010666    0.010687    0.011058
 Highest eigenvalues
    2.185887    2.222835    2.259325    2.267833    2.285015    2.302470


........................................................................
.............................. CYCLE   67 ..............................
........................................................................

 iter      E             dE          RMSdq      gap      omega  full diag
   1   -178.0246149 -0.178025E+03  0.599E-02    0.14       0.0  T
   2   -178.0246165 -0.158016E-05  0.353E-02    0.14       1.0  T
   3   -178.0245285  0.879928E-04  0.233E-02    0.14       1.0  T
   4   -178.0246004 -0.718650E-04  0.961E-03    0.15       1.0  T
   5   -178.0245981  0.225567E-05  0.972E-03    0.14       1.0  T
   6   -178.0246223 -0.241585E-04  0.200E-03    0.14       4.7  T
   7   -178.0246230 -0.693942E-06  0.705E-04    0.14      13.5  T
   8   -178.0246230 -0.117006E-07  0.338E-04    0.14      28.1  T
     SCC iter.                  ...        0 min,  0.093 sec
     gradient                   ...        0 min,  0.098 sec
 * total energy  :  -175.0987835 Eh     change       -0.2326895E-03 Eh
   gradient norm :     0.0067563 Eh/α   predicted     0.0000000E+00 (-100.00%)
   displ. norm   :     0.0733217 α      lambda       -0.1366822E-03
   maximum displ.:     0.0289011 α      in ANC's #39, #11, #18, ...

........................................................................
.............................. CYCLE   68 ..............................
........................................................................

 iter      E             dE          RMSdq      gap      omega  full diag
   1   -178.0246994 -0.178025E+03  0.153E-02    0.14       0.0  T
   2   -178.0246974  0.201358E-05  0.944E-03    0.14       1.0  T
   3   -178.0245637  0.133711E-03  0.230E-02    0.17       1.0  T
   4   -178.0246931 -0.129361E-03  0.590E-03    0.14       1.6  T
   5   -178.0247000 -0.689100E-05  0.131E-03    0.14       7.3  T
   6   -178.0247003 -0.304052E-06  0.393E-04    0.14      24.1  T
   7   -178.0247003 -0.142757E-07  0.198E-04    0.14      47.9  T
     SCC iter.                  ...        0 min,  0.081 sec
     gradient                   ...        0 min,  0.098 sec
 * total energy  :  -175.0988975 Eh     change       -0.1139883E-03 Eh
   gradient norm :     0.0027933 Eh/α   predicted    -0.7172325E-04 ( -37.08%)
   displ. norm   :     0.1950701 α      lambda       -0.2110122E-03
   maximum displ.:     0.0790489 α      in ANC's #39, #11, #5, ...

........................................................................
.............................. CYCLE   69 ..............................
........................................................................

 iter      E             dE          RMSdq      gap      omega  full diag
   1   -178.0241691 -0.178024E+03  0.345E-02    0.14       0.0  T
   2   -178.0241559  0.132196E-04  0.214E-02    0.14       1.0  T
   3   -178.0235998  0.556167E-03  0.479E-02    0.20       1.0  T
   4   -178.0241678 -0.568033E-03  0.559E-03    0.14       1.7  T
   5   -178.0241709 -0.307794E-05  0.242E-03    0.15       3.9  T
   6   -178.0241720 -0.114201E-05  0.762E-04    0.14      12.5  T
   7   -178.0241720 -0.251071E-07  0.517E-04    0.14      18.4  T
   8   -178.0241721 -0.330939E-07  0.237E-04    0.14      40.0  T
     SCC iter.                  ...        0 min,  0.091 sec
     gradient                   ...        0 min,  0.098 sec
 * total energy  :  -175.0990387 Eh     change       -0.1411158E-03 Eh
   gradient norm :     0.0038491 Eh/α   predicted    -0.1095222E-03 ( -22.39%)
   displ. norm   :     0.1849053 α      lambda       -0.1114093E-03
   maximum displ.:     0.0702384 α      in ANC's #39, #5, #11, ...

........................................................................
.............................. CYCLE   70 ..............................
........................................................................

 iter      E             dE          RMSdq      gap      omega  full diag
   1   -178.0235229 -0.178024E+03  0.299E-02    0.14       0.0  T
   2   -178.0235178  0.512164E-05  0.180E-02    0.14       1.0  T
   3   -178.0231372  0.380660E-03  0.389E-02    0.19       1.0  T
   4   -178.0235225 -0.385322E-03  0.365E-03    0.14       2.6  T
   5   -178.0235239 -0.144369E-05  0.141E-03    0.14       6.8  T
   6   -178.0235242 -0.307848E-06  0.598E-04    0.14      15.9  T
   7   -178.0235242 -0.180872E-07  0.390E-04    0.14      24.3  T
     SCC iter.                  ...        0 min,  0.080 sec
     gradient                   ...        0 min,  0.098 sec
 * total energy  :  -175.0991273 Eh     change       -0.8864496E-04 Eh
   gradient norm :     0.0050816 Eh/α   predicted    -0.5760958E-04 ( -35.01%)
   displ. norm   :     0.3139353 α      lambda       -0.1714737E-03
   maximum displ.:     0.1101289 α      in ANC's #39, #5, #7, ...

........................................................................
.............................. CYCLE   71 ..............................
........................................................................

 iter      E             dE          RMSdq      gap      omega  full diag
   1   -178.0224404 -0.178022E+03  0.483E-02    0.14       0.0  T
   2   -178.0224364  0.392306E-05  0.285E-02    0.14       1.0  T
   3   -178.0219930  0.443394E-03  0.420E-02    0.19       1.0  T
   4   -178.0224390 -0.445955E-03  0.539E-03    0.14       1.8  T
   5   -178.0224421 -0.306547E-05  0.234E-03    0.15       4.1  T
   6   -178.0224430 -0.926402E-06  0.988E-04    0.14       9.6  T
   7   -178.0224431 -0.850156E-07  0.625E-04    0.14      15.2  T
     SCC iter.                  ...        0 min,  0.082 sec
     gradient                   ...        0 min,  0.099 sec
 * total energy  :  -175.0992511 Eh     change       -0.1238056E-03 Eh
   gradient norm :     0.0048533 Eh/α   predicted    -0.9418807E-04 ( -23.92%)
   displ. norm   :     0.2610306 α      lambda       -0.1284773E-03
   maximum displ.:     0.1008618 α      in ANC's #5, #7, #8, ...

........................................................................
.............................. CYCLE   72 ..............................
........................................................................

 iter      E             dE          RMSdq      gap      omega  full diag
   1   -178.0225009 -0.178023E+03  0.389E-02    0.14       0.0  T
   2   -178.0225003  0.609210E-06  0.229E-02    0.14       1.0  T
   3   -178.0223127  0.187581E-03  0.271E-02    0.17       1.0  T
   4   -178.0224956 -0.182945E-03  0.569E-03    0.14       1.7  T
   5   -178.0225020 -0.634338E-05  0.158E-03    0.14       6.0  T
   6   -178.0225024 -0.435670E-06  0.589E-04    0.14      16.1  T
   7   -178.0225024 -0.811377E-08  0.401E-04    0.14      23.7  T
     SCC iter.                  ...        0 min,  0.082 sec
     gradient                   ...        0 min,  0.099 sec
 * total energy  :  -175.0993475 Eh     change       -0.9639899E-04 Eh
   gradient norm :     0.0042566 Eh/α   predicted    -0.6861676E-04 ( -28.82%)
   displ. norm   :     0.2490332 α      lambda       -0.1401233E-03
   maximum displ.:     0.1057082 α      in ANC's #5, #8, #7, ...

........................................................................
.............................. CYCLE   73 ..............................
........................................................................

 iter      E             dE          RMSdq      gap      omega  full diag
   1   -178.0239417 -0.178024E+03  0.376E-02    0.14       0.0  T
   2   -178.0239421 -0.417815E-06  0.220E-02    0.14       1.0  T
   3   -178.0238627  0.794214E-04  0.179E-02    0.16       1.0  T
   4   -178.0239222 -0.595748E-04  0.904E-03    0.14       1.0  T
   5   -178.0239426 -0.203673E-04  0.166E-03    0.14       5.7  T
   6   -178.0239431 -0.506294E-06  0.694E-04    0.14      13.7  T
   7   -178.0239432 -0.275146E-07  0.434E-04    0.14      21.9  T
     SCC iter.                  ...        0 min,  0.083 sec
     gradient                   ...        0 min,  0.099 sec
 * total energy  :  -175.0994539 Eh     change       -0.1063995E-03 Eh
   gradient norm :     0.0043202 Eh/α   predicted    -0.7442865E-04 ( -30.05%)
   displ. norm   :     0.3218181 α      lambda       -0.1449574E-03
   maximum displ.:     0.1395538 α      in ANC's #5, #8, #7, ...

........................................................................
.............................. CYCLE   74 ..............................
........................................................................

 iter      E             dE          RMSdq      gap      omega  full diag
   1   -178.0238950 -0.178024E+03  0.478E-02    0.14       0.0  T
   2   -178.0238947  0.335804E-06  0.280E-02    0.14       1.0  T
   3   -178.0237065  0.188212E-03  0.274E-02    0.17       1.0  T
   4   -178.0238859 -0.179449E-03  0.695E-03    0.14       1.4  T
   5   -178.0238964 -0.105309E-04  0.178E-03    0.15       5.3  T
   6   -178.0238969 -0.435731E-06  0.983E-04    0.14       9.7  T
   7   -178.0238970 -0.877448E-07  0.558E-04    0.14      17.0  T
     SCC iter.                  ...        0 min,  0.081 sec
     gradient                   ...        0 min,  0.099 sec
 * total energy  :  -175.0995700 Eh     change       -0.1161135E-03 Eh
   gradient norm :     0.0055181 Eh/α   predicted    -0.7998687E-04 ( -31.11%)
   displ. norm   :     0.3665228 α      lambda       -0.1892187E-03
   maximum displ.:     0.1678512 α      in ANC's #8, #5, #7, ...

........................................................................
.............................. CYCLE   75 ..............................
........................................................................

 iter      E             dE          RMSdq      gap      omega  full diag
   1   -178.0245862 -0.178025E+03  0.560E-02    0.14       0.0  T
   2   -178.0245868 -0.620590E-06  0.326E-02    0.14       1.0  T
   3   -178.0244388  0.147965E-03  0.246E-02    0.17       1.0  T
   4   -178.0245655 -0.126682E-03  0.960E-03    0.14       1.0  T
   5   -178.0245878 -0.222809E-04  0.246E-03    0.15       3.9  T
   6   -178.0245888 -0.105758E-05  0.108E-03    0.14       8.8  T
   7   -178.0245889 -0.775157E-07  0.554E-04    0.14      17.1  T
   8   -178.0245890 -0.584980E-07  0.116E-04    0.14      81.8  T
     SCC iter.                  ...        0 min,  0.095 sec
     gradient                   ...        0 min,  0.099 sec
 * total energy  :  -175.0997061 Eh     change       -0.1360757E-03 Eh
   gradient norm :     0.0050520 Eh/α   predicted    -0.1073258E-03 ( -21.13%)
   displ. norm   :     0.4966729 α      lambda       -0.1749264E-03
   maximum displ.:     0.2225002 α      in ANC's #5, #8, #7, ...

........................................................................
.............................. CYCLE   76 ..............................
........................................................................

 iter      E             dE          RMSdq      gap      omega  full diag
   1   -178.0196420 -0.178020E+03  0.722E-02    0.14       0.0  T
   2   -178.0196392  0.279706E-05  0.423E-02    0.14       1.0  T
   3   -178.0191242  0.514976E-03  0.457E-02    0.20       1.0  T
   4   -178.0196455 -0.521277E-03  0.379E-03    0.14       2.5  T
   5   -178.0196465 -0.104187E-05  0.213E-03    0.14       4.5  T
   6   -178.0196468 -0.250871E-06  0.125E-03    0.14       7.6  T
   7   -178.0196470 -0.182736E-06  0.631E-04    0.14      15.0  T
   8   -178.0196470 -0.418914E-07  0.301E-04    0.14      31.5  T
     SCC iter.                  ...        0 min,  0.093 sec
     gradient                   ...        0 min,  0.098 sec
 * total energy  :  -175.0997882 Eh     change       -0.8212871E-04 Eh
   gradient norm :     0.0075830 Eh/α   predicted    -0.1090708E-03 (  32.80%)
   displ. norm   :     0.1767256 α      lambda       -0.1756851E-03
   maximum displ.:     0.0890989 α      in ANC's #8, #5, #7, ...

........................................................................
.............................. CYCLE   77 ..............................
........................................................................

 iter      E             dE          RMSdq      gap      omega  full diag
   1   -178.0222582 -0.178022E+03  0.271E-02    0.14       0.0  T
   2   -178.0222569  0.134308E-05  0.160E-02    0.14       1.0  T
   3   -178.0220468  0.210112E-03  0.290E-02    0.17       1.0  T
   4   -178.0222524 -0.205649E-03  0.589E-03    0.14       1.6  T
   5   -178.0222594 -0.698690E-05  0.177E-03    0.15       5.3  T
   6   -178.0222600 -0.615928E-06  0.509E-04    0.14      18.6  T
   7   -178.0222600  0.711961E-08  0.397E-04    0.14      23.9  T
     SCC iter.                  ...        0 min,  0.081 sec
     gradient                   ...        0 min,  0.099 sec
 * total energy  :  -175.0999056 Eh     change       -0.1173704E-03 Eh
   gradient norm :     0.0034838 Eh/α   predicted    -0.9059916E-04 ( -22.81%)
   displ. norm   :     0.3391438 α      lambda       -0.1264007E-03
   maximum displ.:     0.1704698 α      in ANC's #8, #5, #7, ...

........................................................................
.............................. CYCLE   78 ..............................
........................................................................

 iter      E             dE          RMSdq      gap      omega  full diag
   1   -178.0221240 -0.178022E+03  0.495E-02    0.14       0.0  T
   2   -178.0221242 -0.131439E-06  0.289E-02    0.14       1.0  T
   3   -178.0219685  0.155640E-03  0.250E-02    0.17       1.0  T
   4   -178.0221148 -0.146231E-03  0.702E-03    0.14       1.4  T
   5   -178.0221257 -0.109525E-04  0.169E-03    0.15       5.6  T
   6   -178.0221260 -0.304397E-06  0.960E-04    0.14       9.9  T
   7   -178.0221261 -0.126903E-06  0.479E-04    0.14      19.8  T
     SCC iter.                  ...        0 min,  0.080 sec
     gradient                   ...        0 min,  0.098 sec
 * total energy  :  -175.1000113 Eh     change       -0.1057256E-03 Eh
   gradient norm :     0.0034561 Eh/α   predicted    -0.7047250E-04 ( -33.34%)
   displ. norm   :     0.4725050 α      lambda       -0.1786697E-03
   maximum displ.:     0.2376570 α      in ANC's #8, #5, #7, ...

........................................................................
.............................. CYCLE   79 ..............................
........................................................................

 iter      E             dE          RMSdq      gap      omega  full diag
   1   -178.0225128 -0.178023E+03  0.702E-02    0.14       0.0  T
   2   -178.0225153 -0.252075E-05  0.409E-02    0.14       1.0  T
   3   -178.0224562  0.590809E-04  0.164E-02    0.16       1.0  T
   4   -178.0224292  0.270115E-04  0.183E-02    0.13       1.0  T
   5   -178.0225160 -0.867229E-04  0.278E-03    0.15       3.4  T
   6   -178.0225169 -0.975916E-06  0.163E-03    0.14       5.8  T
   7   -178.0225173 -0.326779E-06  0.579E-04    0.14      16.4  T
   8   -178.0225173 -0.654965E-07  0.179E-04    0.14      53.0  T
     SCC iter.                  ...        0 min,  0.091 sec
     gradient                   ...        0 min,  0.098 sec
 * total energy  :  -175.1001492 Eh     change       -0.1378877E-03 Eh
   gradient norm :     0.0035243 Eh/α   predicted    -0.1092852E-03 ( -20.74%)
   displ. norm   :     0.4719668 α      lambda       -0.1293703E-03
   maximum displ.:     0.2413964 α      in ANC's #8, #5, #7, ...

........................................................................
.............................. CYCLE   80 ..............................
........................................................................

 iter      E             dE          RMSdq      gap      omega  full diag
   1   -178.0223873 -0.178022E+03  0.683E-02    0.14       0.0  T
   2   -178.0223894 -0.213510E-05  0.398E-02    0.14       1.0  T
   3   -178.0223037  0.857313E-04  0.194E-02    0.16       1.0  T
   4   -178.0223211 -0.173806E-04  0.164E-02    0.13       1.0  T
   5   -178.0223902 -0.691483E-04  0.263E-03    0.15       3.6  T
   6   -178.0223911 -0.893483E-06  0.155E-03    0.14       6.1  T
   7   -178.0223914 -0.271228E-06  0.655E-04    0.14      14.5  T
   8   -178.0223915 -0.978183E-07  0.173E-04    0.14      55.0  T
     SCC iter.                  ...        0 min,  0.092 sec
     gradient                   ...        0 min,  0.098 sec
 * total energy  :  -175.1002467 Eh     change       -0.9754343E-04 Eh
   gradient norm :     0.0039823 Eh/α   predicted    -0.7910290E-04 ( -18.90%)
   displ. norm   :     0.3940105 α      lambda       -0.1135414E-03
   maximum displ.:     0.2041072 α      in ANC's #8, #5, #7, ...

........................................................................
.............................. CYCLE   81 ..............................
........................................................................

 iter      E             dE          RMSdq      gap      omega  full diag
   1   -178.0257050 -0.178026E+03  0.550E-02    0.14       0.0  T
   2   -178.0257009  0.407551E-05  0.322E-02    0.14       1.0  T
   3   -178.0252208  0.480181E-03  0.444E-02    0.20       1.0  T
   4   -178.0257061 -0.485337E-03  0.410E-03    0.14       2.3  T
   5   -178.0257072 -0.114760E-05  0.217E-03    0.14       4.4  T
   6   -178.0257071  0.124233E-06  0.198E-03    0.14       4.8  T
   7   -178.0257081 -0.987156E-06  0.455E-04    0.14      20.8  T
   8   -178.0257081 -0.343606E-07  0.164E-04    0.14      57.8  T
     SCC iter.                  ...        0 min,  0.092 sec
     gradient                   ...        0 min,  0.098 sec
 * total energy  :  -175.1003247 Eh     change       -0.7799596E-04 Eh
   gradient norm :     0.0036179 Eh/α   predicted    -0.6558632E-04 ( -15.91%)
   displ. norm   :     0.5982248 α      lambda       -0.1267317E-03
   maximum displ.:     0.3067835 α      in ANC's #8, #5, #7, ...

........................................................................
.............................. CYCLE   82 ..............................
........................................................................

 iter      E             dE          RMSdq      gap      omega  full diag
   1   -178.0207377 -0.178021E+03  0.828E-02    0.14       0.0  T
   2   -178.0207424 -0.466454E-05  0.483E-02    0.14       1.0  T
   3   -178.0207356  0.673266E-05  0.752E-03    0.14       1.3  T
   4   -178.0207281  0.756025E-05  0.813E-03    0.14       1.2  T
   5   -178.0207336 -0.554880E-05  0.646E-03    0.15       1.5  T
   6   -178.0207439 -0.102523E-04  0.156E-03    0.14       6.1  T
   7   -178.0207441 -0.236377E-06  0.621E-04    0.14      15.3  T
   8   -178.0207442 -0.533717E-07  0.191E-04    0.14      49.6  T
     SCC iter.                  ...        0 min,  0.092 sec
     gradient                   ...        0 min,  0.098 sec
 * total energy  :  -175.1003779 Eh     change       -0.5316889E-04 Eh
   gradient norm :     0.0063142 Eh/α   predicted    -0.8604578E-04 (  61.83%)
   displ. norm   :     0.1337678 α      lambda       -0.1315921E-03
   maximum displ.:     0.0512234 α      in ANC's #8, #7, #5, ...

........................................................................
.............................. CYCLE   83 ..............................
........................................................................

 iter      E             dE          RMSdq      gap      omega  full diag
   1   -178.0260305 -0.178026E+03  0.214E-02    0.15       0.0  T
   2   -178.0259915  0.389964E-04  0.176E-02    0.13       1.0  T
   3   -178.0257105  0.280992E-03  0.363E-02    0.18       1.0  T
   4   -178.0260215 -0.310999E-03  0.691E-03    0.15       1.4  T
   5   -178.0260321 -0.106686E-04  0.204E-03    0.14       4.7  T
   6   -178.0260330 -0.858813E-06  0.646E-04    0.14      14.7  T
   7   -178.0260330 -0.416943E-07  0.298E-04    0.14      31.8  T
     SCC iter.                  ...        0 min,  0.080 sec
     gradient                   ...        0 min,  0.098 sec
 * total energy  :  -175.1004622 Eh     change       -0.8424895E-04 Eh
   gradient norm :     0.0032411 Eh/α   predicted    -0.6697383E-04 ( -20.50%)
   displ. norm   :     0.3466213 α      lambda       -0.7088489E-04
   maximum displ.:     0.1727328 α      in ANC's #8, #5, #7, ...

........................................................................
.............................. CYCLE   84 ..............................
........................................................................

 iter      E             dE          RMSdq      gap      omega  full diag
   1   -178.0260990 -0.178026E+03  0.478E-02    0.14       0.0  T
   2   -178.0261004 -0.135252E-05  0.279E-02    0.14       1.0  T
   3   -178.0260831  0.173235E-04  0.996E-03    0.15       1.0  T
   4   -178.0260634  0.197228E-04  0.120E-02    0.13       1.0  T
   5   -178.0261004 -0.370048E-04  0.238E-03    0.14       4.0  T
   6   -178.0261014 -0.102433E-05  0.980E-04    0.14       9.7  T
   7   -178.0261015 -0.785104E-07  0.487E-04    0.14      19.5  T
   8   -178.0261015 -0.312352E-07  0.136E-04    0.14      69.9  T
     SCC iter.                  ...        0 min,  0.092 sec
     gradient                   ...        0 min,  0.098 sec
 * total energy  :  -175.1005175 Eh     change       -0.5533250E-04 Eh
   gradient norm :     0.0031263 Eh/α   predicted    -0.3970140E-04 ( -28.25%)
   displ. norm   :     0.4379452 α      lambda       -0.7987885E-04
   maximum displ.:     0.2148374 α      in ANC's #7, #5, #8, ...

........................................................................
.............................. CYCLE   85 ..............................
........................................................................

 iter      E             dE          RMSdq      gap      omega  full diag
   1   -178.0258830 -0.178026E+03  0.596E-02    0.14       0.0  T
   2   -178.0258848 -0.186127E-05  0.349E-02    0.14       1.0  T
   3   -178.0258135  0.713504E-04  0.190E-02    0.13       1.0  T
   4   -178.0257920  0.215244E-04  0.192E-02    0.16       1.0  T
   5   -178.0258869 -0.949504E-04  0.204E-03    0.14       4.6  T
   6   -178.0258872 -0.263435E-06  0.133E-03    0.14       7.1  T
   7   -178.0258873 -0.150752E-06  0.687E-04    0.14      13.8  T
   8   -178.0258874 -0.713029E-07  0.193E-04    0.14      49.2  T
     SCC iter.                  ...        0 min,  0.092 sec
     gradient                   ...        0 min,  0.099 sec
 * total energy  :  -175.1005742 Eh     change       -0.5671618E-04 Eh
   gradient norm :     0.0025219 Eh/α   predicted    -0.4760106E-04 ( -16.07%)
   displ. norm   :     0.3534838 α      lambda       -0.4991899E-04
   maximum displ.:     0.1808330 α      in ANC's #7, #5, #8, ...

........................................................................
.............................. CYCLE   86 ..............................
........................................................................

 iter      E             dE          RMSdq      gap      omega  full diag
   1   -178.0250554 -0.178025E+03  0.494E-02    0.14       0.0  T
   2   -178.0250568 -0.140376E-05  0.289E-02    0.14       1.0  T
   3   -178.0250405  0.162636E-04  0.110E-02    0.14       1.0  T
   4   -178.0250573 -0.167838E-04  0.255E-03    0.14       3.7  T
   5   -178.0250549  0.235486E-05  0.373E-03    0.15       2.5  T
   6   -178.0250576 -0.262529E-05  0.197E-03    0.14       4.8  T
   7   -178.0250584 -0.834387E-06  0.496E-04    0.14      19.2  T
   8   -178.0250584 -0.287305E-07  0.122E-04    0.14      77.6  T
     SCC iter.                  ...        0 min,  0.094 sec
     gradient                   ...        0 min,  0.099 sec
 * total energy  :  -175.1006069 Eh     change       -0.3273307E-04 Eh
   gradient norm :     0.0026679 Eh/α   predicted    -0.2808149E-04 ( -14.21%)
   displ. norm   :     0.3584999 α      lambda        0.5602531E-05
   maximum displ.:     0.1833956 α      in ANC's #7, #5, #8, ...

   *** GEOMETRY OPTIMIZATION CONVERGED AFTER 86 ITERATIONS ***

------------------------------------------------------------------------
 total energy gain   :        -1.0670628 Eh     -669.5920 kcal/mol
 total RMSD          :         3.2124374 a0        1.6999 Å
 total power (kW/mol):       -32.5764298 (step) -129.6455 (real)
------------------------------------------------------------------------

 ANCopt (total)                0 d,  0 h,  0 min, 21.610 sec
 optimizer setup                ...        0 min,  0.000 sec (  0.001%)
 model hessian                  ...        0 min,  0.126 sec (  0.583%)
 ANC generation                 ...        0 min,  0.031 sec (  0.145%)
 coordinate transformation      ...        0 min,  0.008 sec (  0.035%)
 single point calculation       ...        0 min, 21.393 sec ( 98.998%)
 optimization log               ...        0 min,  0.021 sec (  0.099%)
 hessian update                 ...        0 min,  0.005 sec (  0.023%)
 rational function              ...        0 min,  0.016 sec (  0.072%)

================
 final structure:
================
 xtb: 6.7.1 (edcfbbe)
          08202606263D

111124  0     0  0            999 V2000
    2.1075    1.6400  -10.4020 C   0  0  0  0  0  0  0  0  0  0  0  0
   -0.4996   -4.5765    6.4364 H   0  0  0  0  0  0  0  0  0  0  0  0
    6.9396    1.0399  -13.6902 H   0  0  0  0  0  0  0  0  0  0  0  0
   -0.6622    5.8098    1.6891 H   0  0  0  0  0  0  0  0  0  0  0  0
    5.4179    1.2269   -9.2316 N   0  0  0  0  0  0  0  0  0  0  0  0
    3.2056    1.6545  -12.9763 N   0  0  0  0  0  0  0  0  0  0  0  0
    1.8877    2.7427    0.6399 C   0  0  0  0  0  0  0  0  0  0  0  0
    1.3251    1.5429   -1.5807 C   0  0  0  0  0  0  0  0  0  0  0  0
    0.6649    1.0671    2.5335 H   0  0  0  0  0  0  0  0  0  0  0  0
    0.2654    1.5546   -2.4681 C   0  0  0  0  0  0  0  0  0  0  0  0
    0.7575    1.5411   -3.7254 N   0  0  0  0  0  0  0  0  0  0  0  0
   -5.0863   -5.7290    9.4136 H   0  0  0  0  0  0  0  0  0  0  0  0
    3.3228   -0.3638    1.4928 H   0  0  0  0  0  0  0  0  0  0  0  0
    4.4923    1.3219   -6.2776 C   0  0  0  0  0  0  0  0  0  0  0  0
    0.2510    1.2360    0.2468 H   0  0  0  0  0  0  0  0  0  0  0  0
    2.2778    1.5292   -6.0690 O   0  0  0  0  0  0  0  0  0  0  0  0
    5.7816    1.1808   -6.7856 C   0  0  0  0  0  0  0  0  0  0  0  0
   -0.0464   -6.4880    7.9830 H   0  0  0  0  0  0  0  0  0  0  0  0
   -2.8110   -7.1682    5.9757 C   0  0  0  0  0  0  0  0  0  0  0  0
   -2.7015    3.6676   -1.5589 H   0  0  0  0  0  0  0  0  0  0  0  0
   -4.1815   -2.2958    5.3930 C   0  0  0  0  0  0  0  0  0  0  0  0
   -2.6807   -6.2827    8.8005 H   0  0  0  0  0  0  0  0  0  0  0  0
   -0.4381    2.9356    4.1242 H   0  0  0  0  0  0  0  0  0  0  0  0
    0.7592    5.3353    0.7412 H   0  0  0  0  0  0  0  0  0  0  0  0
   -5.6781   -1.1003    2.7295 C   0  0  0  0  0  0  0  0  0  0  0  0
   -5.1034   -6.8970    8.1017 H   0  0  0  0  0  0  0  0  0  0  0  0
   -5.2202    0.5241    0.9570 C   0  0  0  0  0  0  0  0  0  0  0  0
    2.3805    1.3757    0.7506 C   0  0  0  0  0  0  0  0  0  0  0  0
   -3.0175    1.7927    1.0553 C   0  0  0  0  0  0  0  0  0  0  0  0
   -6.0288   -0.4272    1.5561 C   0  0  0  0  0  0  0  0  0  0  0  0
    4.2018    1.3502   -4.9392 N   0  0  0  0  0  0  0  0  0  0  0  0
   -2.4542    0.3317    3.4023 C   0  0  0  0  0  0  0  0  0  0  0  0
   -4.2638   -4.0440    6.8284 C   0  0  0  0  0  0  0  0  0  0  0  0
   -1.4653    1.1413    2.8851 C   0  0  0  0  0  0  0  0  0  0  0  0
    3.4782    1.4864  -10.6377 C   0  0  0  0  0  0  0  0  0  0  0  0
    4.1291    1.3814   -9.3805 C   0  0  0  0  0  0  0  0  0  0  0  0
    4.9994    1.4253  -14.5317 C   0  0  0  0  0  0  0  0  0  0  0  0
    0.3560    0.3660    4.3615 N   0  0  0  0  0  0  0  0  0  0  0  0
    2.9142    1.4667   -4.8563 C   0  0  0  0  0  0  0  0  0  0  0  0
   -6.3196   -1.8807    3.1105 H   0  0  0  0  0  0  0  0  0  0  0  0
   -0.5059   -6.7098    7.0311 C   0  0  0  0  0  0  0  0  0  0  0  0
   -2.2364   -7.6552    5.1916 H   0  0  0  0  0  0  0  0  0  0  0  0
    5.4230    1.2280  -12.1893 C   0  0  0  0  0  0  0  0  0  0  0  0
    1.3800    1.7466  -11.1853 H   0  0  0  0  0  0  0  0  0  0  0  0
   -3.3920   -3.2399    6.0777 C   0  0  0  0  0  0  0  0  0  0  0  0
   -5.4845   -2.5716    5.7597 C   0  0  0  0  0  0  0  0  0  0  0  0
   -3.6131   -6.5969    5.5115 H   0  0  0  0  0  0  0  0  0  0  0  0
    6.5667    1.0972   -6.0476 H   0  0  0  0  0  0  0  0  0  0  0  0
   -4.0220   -5.1105    7.6713 C   0  0  0  0  0  0  0  0  0  0  0  0
    1.4378    3.1921    2.0032 C   0  0  0  0  0  0  0  0  0  0  0  0
    4.0583    3.1070    3.8680 H   0  0  0  0  0  0  0  0  0  0  0  0
   -1.0162    3.1296    1.3445 C   0  0  0  0  0  0  0  0  0  0  0  0
   -1.9216   -6.2645    6.7994 C   0  0  0  0  0  0  0  0  0  0  0  0
    4.7685    0.9818    3.0133 H   0  0  0  0  0  0  0  0  0  0  0  0
   -0.0977    0.8660    3.2767 C   0  0  0  0  0  0  0  0  0  0  0  0
   -3.7352   -1.2669    4.4865 C   0  0  0  0  0  0  0  0  0  0  0  0
   -0.2891   -0.0857    5.4528 C   0  0  0  0  0  0  0  0  0  0  0  0
   -0.7911   -5.5626    6.1060 C   0  0  0  0  0  0  0  0  0  0  0  0
   -5.5131    1.0045    0.0374 H   0  0  0  0  0  0  0  0  0  0  0  0
   -2.0160   -4.7273    8.2884 H   0  0  0  0  0  0  0  0  0  0  0  0
    1.2135    1.5826   -0.1150 C   0  0  0  0  0  0  0  0  0  0  0  0
   -5.1499   -5.8309    8.3277 C   0  0  0  0  0  0  0  0  0  0  0  0
    0.9409    5.7658    2.4292 H   0  0  0  0  0  0  0  0  0  0  0  0
   -6.4073   -2.0839    5.5150 H   0  0  0  0  0  0  0  0  0  0  0  0
    3.2699    1.4408   -6.9918 C   0  0  0  0  0  0  0  0  0  0  0  0
   -1.3102    4.4175    3.7265 H   0  0  0  0  0  0  0  0  0  0  0  0
    3.1754    0.7044    1.5758 C   0  0  0  0  0  0  0  0  0  0  0  0
    6.1347    1.1339   -8.1233 C   0  0  0  0  0  0  0  0  0  0  0  0
   -1.7879   -1.1636    6.4564 H   0  0  0  0  0  0  0  0  0  0  0  0
   -1.3392    3.6811    0.1119 C   0  0  0  0  0  0  0  0  0  0  0  0
    3.4601    2.6182    3.1070 C   0  0  0  0  0  0  0  0  0  0  0  0
    0.2216    1.5351   -4.5779 H   0  0  0  0  0  0  0  0  0  0  0  0
    2.1240    1.5143   -3.6768 C   0  0  0  0  0  0  0  0  0  0  0  0
   -0.7885    1.5670   -2.2688 H   0  0  0  0  0  0  0  0  0  0  0  0
   -3.3105    2.3871   -0.1001 N   0  0  0  0  0  0  0  0  0  0  0  0
    1.8413    1.6337   -9.0347 C   0  0  0  0  0  0  0  0  0  0  0  0
    5.8912    1.2139  -13.4886 C   0  0  0  0  0  0  0  0  0  0  0  0
   -0.6663   -5.7134    5.0440 H   0  0  0  0  0  0  0  0  0  0  0  0
   -2.4565    3.2495   -0.5908 C   0  0  0  0  0  0  0  0  0  0  0  0
    5.3261    1.4230  -15.5604 H   0  0  0  0  0  0  0  0  0  0  0  0
   -2.5059   -0.6217    4.5173 C   0  0  0  0  0  0  0  0  0  0  0  0
    2.2380    3.1923    2.9843 N   0  0  0  0  0  0  0  0  0  0  0  0
   -0.7497    4.4706   -0.3183 H   0  0  0  0  0  0  0  0  0  0  0  0
   -5.5499   -3.6050    6.6142 O   0  0  0  0  0  0  0  0  0  0  0  0
    3.5103    1.5005   -1.9827 H   0  0  0  0  0  0  0  0  0  0  0  0
   -0.1841   -7.6480    6.6052 H   0  0  0  0  0  0  0  0  0  0  0  0
   -1.8048    2.0292    1.7844 C   0  0  0  0  0  0  0  0  0  0  0  0
   -1.5259   -0.6534    5.5390 C   0  0  0  0  0  0  0  0  0  0  0  0
    0.2838    5.2742    1.7162 C   0  0  0  0  0  0  0  0  0  0  0  0
    2.9259    1.8083  -14.9834 H   0  0  0  0  0  0  0  0  0  0  0  0
    2.5027    1.5205   -2.3442 C   0  0  0  0  0  0  0  0  0  0  0  0
    0.0648    3.8132    2.1778 C   0  0  0  0  0  0  0  0  0  0  0  0
    0.8738    1.7323   -8.5768 H   0  0  0  0  0  0  0  0  0  0  0  0
   -2.6293   -5.5748    7.9688 C   0  0  0  0  0  0  0  0  0  0  0  0
   -2.3354   -3.3692    5.9978 H   0  0  0  0  0  0  0  0  0  0  0  0
   -3.2545   -7.9397    6.6040 H   0  0  0  0  0  0  0  0  0  0  0  0
    6.0766    1.0698  -11.3473 H   0  0  0  0  0  0  0  0  0  0  0  0
   -4.4873   -0.7726    3.3543 C   0  0  0  0  0  0  0  0  0  0  0  0
   -3.6941    0.2265    2.7459 C   0  0  0  0  0  0  0  0  0  0  0  0
    3.8851    1.4371    2.5891 C   0  0  0  0  0  0  0  0  0  0  0  0
    3.0407    1.4833   -8.3522 C   0  0  0  0  0  0  0  0  0  0  0  0
    0.3960    4.4682    4.2005 H   0  0  0  0  0  0  0  0  0  0  0  0
    7.1934    1.0040   -8.3349 H   0  0  0  0  0  0  0  0  0  0  0  0
    4.0596    1.4549  -11.9654 C   0  0  0  0  0  0  0  0  0  0  0  0
   -6.1074   -5.4395    7.9968 H   0  0  0  0  0  0  0  0  0  0  0  0
   -3.9999    0.8625    1.5524 C   0  0  0  0  0  0  0  0  0  0  0  0
    3.6671    1.6395  -14.2095 C   0  0  0  0  0  0  0  0  0  0  0  0
    0.3596   -0.1138    6.3219 H   0  0  0  0  0  0  0  0  0  0  0  0
   -6.9665   -0.6816    1.0821 H   0  0  0  0  0  0  0  0  0  0  0  0
   -0.3528    3.9054    3.6515 C   0  0  0  0  0  0  0  0  0  0  0  0
    2.4307    3.4745    0.0527 H   0  0  0  0  0  0  0  0  0  0  0  0
  1 35  4  0  0  0  0
  1 44  1  0  0  0  0
  1 76  4  0  0  0  0
  2 58  1  0  0  0  0
  3 77  1  0  0  0  0
  4 89  1  0  0  0  0
  5 36  4  0  0  0  0
  5 68  4  0  0  0  0
  6104  4  0  0  0  0
  6107  4  0  0  0  0
  7 28  1  0  0  0  0
  7 50  1  0  0  0  0
  7 61  1  0  0  0  0
  7111  1  0  0  0  0
  8 10  4  0  0  0  0
  8 61  1  0  0  0  0
  8 91  4  0  0  0  0
  9 55  1  0  0  0  0
 10 11  4  0  0  0  0
 10 74  1  0  0  0  0
 11 72  1  0  0  0  0
 11 73  4  0  0  0  0
 12 62  1  0  0  0  0
 13 67  1  0  0  0  0
 14 17  4  0  0  0  0
 14 31  4  0  0  0  0
 14 65  4  0  0  0  0
 15 61  1  0  0  0  0
 16 39  4  0  0  0  0
 16 65  4  0  0  0  0
 17 48  1  0  0  0  0
 17 68  4  0  0  0  0
 18 41  1  0  0  0  0
 19 42  1  0  0  0  0
 19 47  1  0  0  0  0
 19 53  1  0  0  0  0
 19 96  1  0  0  0  0
 20 79  1  0  0  0  0
 21 45  4  0  0  0  0
 21 46  4  0  0  0  0
 21 56  1  0  0  0  0
 22 94  1  0  0  0  0
 23110  1  0  0  0  0
 24 89  1  0  0  0  0
 25 30  4  0  0  0  0
 25 40  1  0  0  0  0
 25 98  4  0  0  0  0
 26 62  1  0  0  0  0
 27 30  4  0  0  0  0
 27 59  1  0  0  0  0
 27106  4  0  0  0  0
 28 61  1  0  0  0  0
 28 67  2  0  0  0  0
 29 75  4  0  0  0  0
 29 87  4  0  0  0  0
 29106  4  0  0  0  0
 30109  1  0  0  0  0
 31 39  4  0  0  0  0
 32 34  4  0  0  0  0
 32 81  1  0  0  0  0
 32 99  4  0  0  0  0
 33 45  4  0  0  0  0
 33 49  1  0  0  0  0
 33 84  4  0  0  0  0
 34 55  4  0  0  0  0
 34 87  4  0  0  0  0
 35 36  4  0  0  0  0
 35104  1  0  0  0  0
 36101  1  0  0  0  0
 37 77  4  0  0  0  0
 37 80  1  0  0  0  0
 37107  4  0  0  0  0
 38 55  4  0  0  0  0
 38 57  4  0  0  0  0
 39 73  1  0  0  0  0
 41 53  1  0  0  0  0
 41 58  1  0  0  0  0
 41 86  1  0  0  0  0
 43 77  4  0  0  0  0
 43 97  1  0  0  0  0
 43104  4  0  0  0  0
 45 95  1  0  0  0  0
 46 64  1  0  0  0  0
 46 84  4  0  0  0  0
 49 62  1  0  0  0  0
 49 94  1  0  0  0  0
 50 82  2  0  0  0  0
 50 92  1  0  0  0  0
 51 71  1  0  0  0  0
 52 70  4  0  0  0  0
 52 87  4  0  0  0  0
 52 92  1  0  0  0  0
 53 58  1  0  0  0  0
 53 94  1  0  0  0  0
 54100  1  0  0  0  0
 56 81  4  0  0  0  0
 56 98  4  0  0  0  0
 57 88  4  0  0  0  0
 57108  1  0  0  0  0
 58 78  1  0  0  0  0
 60 94  1  0  0  0  0
 62105  1  0  0  0  0
 63 89  1  0  0  0  0
 65101  4  0  0  0  0
 66110  1  0  0  0  0
 67100  1  0  0  0  0
 68103  1  0  0  0  0
 69 88  1  0  0  0  0
 70 79  4  0  0  0  0
 70 83  1  0  0  0  0
 71 82  1  0  0  0  0
 71100  2  0  0  0  0
 73 91  4  0  0  0  0
 75 79  4  0  0  0  0
 76 93  1  0  0  0  0
 76101  4  0  0  0  0
 81 88  4  0  0  0  0
 85 91  1  0  0  0  0
 89 92  1  0  0  0  0
 90107  1  0  0  0  0
 92110  1  0  0  0  0
 98 99  4  0  0  0  0
 99106  4  0  0  0  0
102110  1  0  0  0  0
M  END
$$$$

 Bond Distances (Angstroems)
 ---------------------------
C1-C35=1.3993        C1-H44=1.0743        C1-C76=1.3930        H2-C58=1.0801        H3-C77=1.0818        H4-C89=1.0874        
N5-C36=1.3066        N5-C68=1.3231        N6-C104=1.3383       N6-C107=1.3168       C7-C28=1.4574        C7-C50=1.5043        
C7-C61=1.5395        C7-H111=1.0841       C8-C10=1.3823        C8-C61=1.4705        C8-C91=1.4037        H9-C55=1.0837        
C10-C8=1.3823        C10-N11=1.3502       C10-H74=1.0726       N11-C10=1.3502       N11-H72=1.0070       N11-C73=1.3676       
H12-C62=1.0925       H13-C67=1.0815       C14-C17=1.3929       C14-N31=1.3699       C14-C65=1.4208       H15-C61=1.0851       
O16-C39=1.3710       O16-C65=1.3578       C17-C14=1.3929       C17-H48=1.0807       C17-C68=1.3844       H18-C41=1.0800       
C19-H42=1.0873       C19-H47=1.0887       C19-C53=1.5120       C19-H96=1.0893       H20-C79=1.0826       C21-C45=1.4083       
C21-C46=1.3815       C21-C56=1.4421       H22-C94=1.0934       H23-C110=1.0823      H24-C89=1.0865       C25-C30=1.3974       
C25-H40=1.0797       C25-C98=1.3841       H26-C62=1.0908       C27-C30=1.3848       C27-H59=1.0781       C27-C106=1.3993      
C28-C7=1.4574        C28-C61=1.4676       C28-C67=1.3280       C29-N75=1.3320       C29-C87=1.4346       C29-C106=1.4414      
C30-C25=1.3974       C30-C27=1.3848       C30-H109=1.0811      N31-C14=1.3699       N31-C39=1.2955       C32-C34=1.3788       
C32-C81=1.4680       C32-C99=1.4069       C33-C45=1.4037       C33-C49=1.3806       C33-O84=1.3758       C34-C32=1.3788       
C34-C55=1.4489       C34-C87=1.4544       C35-C1=1.3993        C35-C36=1.4195       C35-C104=1.4498      C36-N5=1.3066        
C36-C35=1.4195       C36-C101=1.5008      C37-C77=1.3885       C37-H80=1.0793       C37-C107=1.3873      N38-C55=1.2777       
N38-C57=1.3458       C39-O16=1.3710       C39-N31=1.2955       C39-C73=1.4205       H40-C25=1.0797       C41-H18=1.0800       
C41-C53=1.5021       C41-C58=1.5010       C41-H86=1.0795       H42-C19=1.0873       C43-C77=1.3812       C43-H97=1.0775       
C43-C104=1.4003      H44-C1=1.0743        C45-C21=1.4083       C45-C33=1.4037       C45-H95=1.0675       C46-C21=1.3815       
C46-H64=1.0721       C46-O84=1.3424       H47-C19=1.0887       H48-C17=1.0807       C49-C33=1.3806       C49-C62=1.4907       
C49-C94=1.4980       C50-C7=1.5043        C50-N82=1.2661       C50-C92=1.5171       H51-C71=1.0844       C52-C70=1.3884       
C52-C87=1.4234       C52-C92=1.5265       C53-C19=1.5120       C53-C41=1.5021       C53-C58=1.5005       C53-C94=1.5310       
H54-C100=1.0806      C55-H9=1.0837        C55-C34=1.4489       C55-N38=1.2777       C56-C21=1.4421       C56-C81=1.3886       
C56-C98=1.4464       C57-N38=1.3458       C57-C88=1.3636       C57-H108=1.0849      C58-H2=1.0801        C58-C41=1.5010       
C58-C53=1.5005       C58-H78=1.0798       H59-C27=1.0781       H60-C94=1.0938       C61-C7=1.5395        C61-C8=1.4705        
C61-H15=1.0851       C61-C28=1.4676       C62-H12=1.0925       C62-H26=1.0908       C62-C49=1.4907       C62-H105=1.0860      
H63-C89=1.0870       H64-C46=1.0721       C65-C14=1.4208       C65-O16=1.3578       C65-C101=1.3802      H66-C110=1.0883      
C67-H13=1.0815       C67-C28=1.3280       C67-C100=1.4379      C68-N5=1.3231        C68-C17=1.3844       C68-H103=1.0874      
H69-C88=1.0818       C70-C52=1.3884       C70-C79=1.3887       C70-H83=1.0751       C71-H51=1.0844       C71-N82=1.3558       
C71-C100=1.3578      H72-N11=1.0070       C73-N11=1.3676       C73-C39=1.4205       C73-C91=1.3853       H74-C10=1.0726       
N75-C29=1.3320       N75-C79=1.3091       C76-C1=1.3930        C76-H93=1.0749       C76-C101=1.3882      C77-H3=1.0818        
C77-C37=1.3885       C77-C43=1.3812       H78-C58=1.0798       C79-H20=1.0826       C79-C70=1.3887       C79-N75=1.3091       
H80-C37=1.0793       C81-C32=1.4680       C81-C56=1.3886       C81-C88=1.4161       N82-C50=1.2661       N82-C71=1.3558       
H83-C70=1.0751       O84-C33=1.3758       O84-C46=1.3424       H85-C91=1.0706       H86-C41=1.0795       C87-C29=1.4346       
C87-C34=1.4544       C87-C52=1.4234       C88-C57=1.3636       C88-H69=1.0818       C88-C81=1.4161       C89-H4=1.0874        
C89-H24=1.0865       C89-H63=1.0870       C89-C92=1.5477       H90-C107=1.0848      C91-C8=1.4037        C91-C73=1.3853       
C91-H85=1.0706       C92-C50=1.5171       C92-C52=1.5265       C92-C89=1.5477       C92-C110=1.5345      H93-C76=1.0749       
C94-H22=1.0934       C94-C49=1.4980       C94-C53=1.5310       C94-H60=1.0938       H95-C45=1.0675       H96-C19=1.0893       
H97-C43=1.0775       C98-C25=1.3841       C98-C56=1.4464       C98-C99=1.4133       C99-C32=1.4069       C99-C98=1.4133       
C99-C106=1.3866      C100-H54=1.0806      C100-C67=1.4379      C100-C71=1.3578      C101-C36=1.5008      C101-C65=1.3802      
C101-C76=1.3882      H102-C110=1.0858     H103-C68=1.0874      C104-N6=1.3383       C104-C35=1.4498      C104-C43=1.4003      
H105-C62=1.0860      C106-C27=1.3993      C106-C29=1.4414      C106-C99=1.3866      C107-N6=1.3168       C107-C37=1.3873      
C107-H90=1.0848      H108-C57=1.0849      H109-C30=1.0811      C110-H23=1.0823      C110-H66=1.0883      C110-C92=1.5345      
C110-H102=1.0858     H111-C7=1.0841       
 C  H  Rav=1.0824 sigma=0.0060  Rmin=1.0675  Rmax=1.0938    43
 C  C  Rav=1.4312 sigma=0.0534  Rmin=1.3280  Rmax=1.5477    62
 N  H  Rav=1.0070 sigma=0.0000  Rmin=1.0070  Rmax=1.0070     1
 N  C  Rav=1.3253 sigma=0.0308  Rmin=1.2661  Rmax=1.3699    14
 O  C  Rav=1.3618 sigma=0.0130  Rmin=1.3424  Rmax=1.3758     4

 selected bond angles (degree)
 --------------------
H44-C1-C35=123.47              C76-C1-C35=110.61              C76-C1-H44=125.92              C68-N5-C36=129.65              
C107-N6-C104=118.82            C50-C7-C28=108.21              C61-C7-C28= 58.57              C61-C7-C50=122.58              
H111-C7-C28=120.33             H111-C7-C50=116.04             H111-C7-C61=117.55             C61-C8-C10=125.56              
C91-C8-C10=107.10              C91-C8-C61=127.32              N11-C10-C8=108.56              H74-C10-C8=129.35              
H74-C10-N11=122.10             

 selected dihedral angles (degree)
 ---------------------------------
N11-C10-C8-C61=178.52         N11-C10-C8-C91=359.96         H74-C10-C8-C61=358.21         H74-C10-C8-C91=179.65         

 CMA Distance (Angstroems)
 ---------------------------
R(CMA): 11.2836
           -------------------------------------------------
          |                Final Singlepoint                |
           -------------------------------------------------

          ...................................................
          :                      SETUP                      :
          :.................................................:
          :  # basis functions                 312          :
          :  # atomic orbitals                 312          :
          :  # shells                          178          :
          :  # electrons                       323          :
          :  max. iterations                   250          :
          :  Hamiltonian                  GFN2-xTB          :
          :  restarted?                      false          :
          :  GBSA solvation                  false          :
          :  PC potential                    false          :
          :  electronic temp.          300.0000000     K    :
          :  accuracy                    1.0000000          :
          :  -> integral cutoff          0.2500000E+02      :
          :  -> integral neglect         0.1000000E-07      :
          :  -> SCF convergence          0.1000000E-05 Eh   :
          :  -> wf. convergence          0.1000000E-03 e    :
          :  Broyden damping             0.4000000          :
          :  net charge                          0          :
          :  unpaired electrons                  0          :
          ...................................................

 iter      E             dE          RMSdq      gap      omega  full diag
   1   -178.0250584 -0.178025E+03  0.574E-05    0.14       0.0  T
   2   -178.0250584  0.362479E-08  0.122E-04    0.14      77.7  T
   3   -178.0250584 -0.301586E-08  0.657E-05    0.14     144.5  T

   *** convergence criteria satisfied after 3 iterations ***

         #    Occupation            Energy/Eh            Energy/eV
      -------------------------------------------------------------
         1        2.0000           -0.7588758             -20.6501
       ...           ...                  ...                  ...
       156        2.0000           -0.3734922             -10.1632
       157        2.0000           -0.3631264              -9.8812
       158        2.0000           -0.3624840              -9.8637
       159        2.0000           -0.3535036              -9.6193
       160        2.0000           -0.3526305              -9.5956
       161        2.0000           -0.3477284              -9.4622
       162        0.9377           -0.3097506              -8.4287 (HOMO)
       163        0.0565           -0.3045000              -8.2859 (LUMO)
       164        0.0058           -0.3022819              -8.2255
       165                         -0.2862970              -7.7905
       166                         -0.2713868              -7.3848
       167                         -0.2633215              -7.1653
       ...                                ...                  ...
       312                          0.7663830              20.8543
      -------------------------------------------------------------
                  HL-Gap            0.0052506 Eh            0.1429 eV
             Fermi-level           -0.3179561 Eh           -8.6520 eV

 SCC (total)                   0 d,  0 h,  0 min,  0.166 sec
 SCC setup                      ...        0 min,  0.001 sec (  0.483%)
 Dispersion                     ...        0 min,  0.002 sec (  1.107%)
 classical contributions        ...        0 min,  0.000 sec (  0.278%)
 integral evaluation            ...        0 min,  0.023 sec ( 13.979%)
 iterations                     ...        0 min,  0.036 sec ( 22.036%)
 molecular gradient             ...        0 min,  0.099 sec ( 59.763%)
 printout                       ...        0 min,  0.004 sec (  2.344%)

         :::::::::::::::::::::::::::::::::::::::::::::::::::::
         ::                     SUMMARY                     ::
         :::::::::::::::::::::::::::::::::::::::::::::::::::::
         :: total energy            -175.100606944368 Eh    ::
         :: gradient norm              0.002670462776 Eh/a0 ::
         :: HOMO-LUMO gap              0.142875547878 eV    ::
         ::.................................................::
         :: SCC energy              -178.023569414522 Eh    ::
         :: -> isotropic ES            0.076204724807 Eh    ::
         :: -> anisotropic ES          0.017869457173 Eh    ::
         :: -> anisotropic XC          0.106586830188 Eh    ::
         :: -> dispersion             -0.157412937119 Eh    ::
         :: repulsion energy           2.922962470153 Eh    ::
         :: add. restraining           0.000000000000 Eh    ::
         :: total charge               0.000000000005 e     ::
         :::::::::::::::::::::::::::::::::::::::::::::::::::::

           -------------------------------------------------
          |                Property Printout                |
           -------------------------------------------------

    * Orbital Energies and Occupations

         #    Occupation            Energy/Eh            Energy/eV
      -------------------------------------------------------------
         1        2.0000           -0.7588758             -20.6501
       ...           ...                  ...                  ...
       150        2.0000           -0.4002809             -10.8922
       151        2.0000           -0.3978893             -10.8271
       152        2.0000           -0.3938157             -10.7163
       153        2.0000           -0.3882139             -10.5638
       154        2.0000           -0.3860084             -10.5038
       155        2.0000           -0.3788668             -10.3095
       156        2.0000           -0.3734922             -10.1632
       157        2.0000           -0.3631264              -9.8812
       158        2.0000           -0.3624840              -9.8637
       159        2.0000           -0.3535036              -9.6193
       160        2.0000           -0.3526305              -9.5956
       161        2.0000           -0.3477284              -9.4622
       162        0.9377           -0.3097506              -8.4287 (HOMO)
       163        0.0565           -0.3045000              -8.2859 (LUMO)
       164        0.0058           -0.3022819              -8.2255
       165                         -0.2862970              -7.7905
       166                         -0.2713868              -7.3848
       167                         -0.2633215              -7.1653
       168                         -0.2631284              -7.1601
       169                         -0.2499839              -6.8024
       170                         -0.2412715              -6.5653
       171                         -0.2260402              -6.1509
       172                         -0.2153058              -5.8588
       173                         -0.2142159              -5.8291
       ...                                ...                  ...
       312                          0.7663830              20.8543
      -------------------------------------------------------------
                  HL-Gap            0.0052506 Eh            0.1429 eV
             Fermi-level           -0.3179561 Eh           -8.6520 eV

     #   Z          covCN         q      C6AA      α(0)
     1   6 C        3.042    -0.021    28.497     8.756
     2   1 H        0.926     0.029     2.606     2.524
     3   1 H        0.925     0.027     2.626     2.534
     4   1 H        0.925     0.047     2.354     2.400
     5   7 N        1.828    -0.208    26.347     7.606
     6   7 N        1.846    -0.239    27.105     7.716
     7   6 C        3.862    -0.042    21.286     6.561
     8   6 C        3.101    -0.013    28.213     8.704
     9   1 H        0.925     0.046     2.364     2.404
    10   6 C        3.039    -0.010    28.235     8.715
    11   7 N        2.805    -0.072    22.639     7.067
    12   1 H        0.924     0.051     2.311     2.377
    13   1 H        0.925     0.035     2.514     2.479
    14   6 C        3.130     0.074    26.156     8.373
    15   1 H        0.925     0.029     2.602     2.522
    16   8 O        1.720    -0.241    17.982     5.726
    17   6 C        2.894    -0.045    29.106     8.845
    18   1 H        0.926     0.031     2.570     2.507
    19   6 C        3.754    -0.106    22.575     6.775
    20   1 H        0.925     0.034     2.532     2.488
    21   6 C        3.031    -0.009    28.206     8.711
    22   1 H        0.924     0.047     2.361     2.403
    23   1 H        0.925     0.047     2.360     2.402
    24   1 H        0.925     0.039     2.461     2.453
    25   6 C        2.915    -0.032    28.791     8.799
    26   1 H        0.924     0.054     2.277     2.360
    27   6 C        2.921    -0.030    28.758     8.794
    28   6 C        2.979     0.001    27.991     8.678
    29   6 C        2.980     0.088    26.034     8.370
    30   6 C        2.920    -0.027    28.668     8.780
    31   7 N        1.872    -0.290    28.373     7.896
    32   6 C        3.063     0.010    27.738     8.637
    33   6 C        3.053     0.110    25.527     8.286
    34   6 C        2.961     0.001    28.010     8.681
    35   6 C        3.057    -0.026    28.591     8.769
    36   6 C        3.000     0.087    26.060     8.374
    37   6 C        2.913    -0.046    29.145     8.853
    38   7 N        1.826    -0.191    25.967     7.551
    39   6 C        3.178     0.217    23.079     7.844
    40   1 H        0.926     0.032     2.553     2.499
    41   6 C        3.807    -0.075    21.920     6.665
    42   1 H        0.925     0.041     2.433     2.439
    43   6 C        2.917    -0.050    29.252     8.869
    44   1 H        0.926     0.057     2.230     2.335
    45   6 C        3.018    -0.081    30.014     8.987
    46   6 C        3.036     0.073    26.328     8.416
    47   1 H        0.925     0.039     2.458     2.452
    48   1 H        0.926     0.063     2.166     2.301
    49   6 C        2.939    -0.015    28.382     8.737
    50   6 C        2.924     0.105    25.686     8.311
    51   1 H        0.925     0.037     2.486     2.465
    52   6 C        2.969     0.022    27.505     8.603
    53   6 C        3.906     0.023    20.128     6.377
    54   1 H        0.926     0.034     2.525     2.485
    55   6 C        2.850     0.067    26.499     8.437
    56   6 C        3.050    -0.027    28.629     8.775
    57   6 C        2.843     0.041    27.076     8.528
    58   6 C        3.807    -0.069    21.818     6.649
    59   1 H        0.926     0.053     2.279     2.361
    60   1 H        0.924     0.048     2.348     2.396
    61   6 C        3.859    -0.017    20.841     6.492
    62   6 C        3.757    -0.107    22.589     6.776
    63   1 H        0.925     0.051     2.308     2.376
    64   1 H        0.926     0.045     2.380     2.412
    65   6 C        3.050     0.134    25.038     8.206
    66   1 H        0.925     0.038     2.474     2.460
    67   6 C        2.893    -0.036    28.900     8.814
    68   6 C        2.842     0.048    26.917     8.503
    69   1 H        0.925     0.042     2.425     2.435
    70   6 C        2.918    -0.053    29.314     8.879
    71   6 C        2.845     0.034    27.237     8.553
    72   1 H        0.860     0.177     1.229     1.737
    73   6 C        3.093     0.018    27.493     8.594
    74   1 H        0.926     0.041     2.432     2.439
    75   7 N        1.846    -0.235    27.012     7.703
    76   6 C        2.988    -0.052    29.271     8.875
    77   6 C        2.927    -0.014    28.352     8.732
    78   1 H        0.926     0.033     2.540     2.492
    79   6 C        2.905     0.058    26.689     8.471
    80   1 H        0.926     0.026     2.642     2.542
    81   6 C        3.059     0.001    27.949     8.670
    82   7 N        1.835    -0.195    26.052     7.564
    83   1 H        0.926     0.044     2.397     2.421
    84   8 O        1.722    -0.208    17.457     5.641
    85   1 H        0.926     0.054     2.265     2.353
    86   1 H        0.926     0.034     2.532     2.488
    87   6 C        2.976    -0.013    28.329     8.731
    88   6 C        2.894    -0.040    28.983     8.827
    89   6 C        3.775    -0.103    22.500     6.759
    90   1 H        0.925     0.028     2.616     2.530
    91   6 C        3.047    -0.060    29.453     8.901
    92   6 C        3.909     0.017    20.224     6.392
    93   1 H        0.926     0.030     2.585     2.514
    94   6 C        3.807    -0.068    21.791     6.645
    95   1 H        0.927     0.043     2.412     2.429
    96   1 H        0.925     0.037     2.485     2.465
    97   1 H        0.926     0.059     2.209     2.324
    98   6 C        3.064     0.002    27.918     8.664
    99   6 C        3.131    -0.019    28.264     8.704
   100   6 C        2.911    -0.050    29.240     8.867
   101   6 C        3.066    -0.028    28.625     8.773
   102   1 H        0.925     0.058     2.222     2.331
   103   1 H        0.925     0.043     2.410     2.427
   104   6 C        2.955     0.099    25.810     8.333
   105   1 H        0.925     0.056     2.246     2.343
   106   6 C        2.984     0.006    27.872     8.660
   107   6 C        2.902     0.059    26.682     8.470
   108   1 H        0.925     0.039     2.460     2.453
   109   1 H        0.926     0.036     2.499     2.472
   110   6 C        3.762    -0.108    22.617     6.779
   111   1 H        0.925     0.038     2.471     2.458

 Mol. C6AA /au·bohr⁶  :     168556.376000
 Mol. C8AA /au·bohr⁸  :    4189938.129731
 Mol. α(0) /au        :        649.687229


Wiberg/Mayer (AO) data.
largest (>0.10) Wiberg bond orders for each atom

 ---------------------------------------------------------------------------
     #   Z sym  total        # sym  WBO       # sym  WBO       # sym  WBO
 ---------------------------------------------------------------------------
     1   6 C    3.965 --    76 C    1.381    35 C    1.368    44 H    0.970
     2   1 H    0.999 --    58 C    0.976
     3   1 H    0.999 --    77 C    0.970
     4   1 H    0.995 --    89 C    0.980
     5   7 N    3.097 --    36 C    1.462    68 C    1.384
     6   7 N    3.043 --   107 C    1.462   104 C    1.361
     7   6 C    3.926 --    28 C    0.981    50 C    0.950   111 H    0.947
                            61 C    0.894
     8   6 C    3.976 --    10 C    1.450    91 C    1.353    61 C    1.031
     9   1 H    0.997 --    55 C    0.935
    10   6 C    3.916 --     8 C    1.450    11 N    1.265    74 H    0.969
                            73 C    0.111
    11   7 N    3.586 --    10 C    1.265    73 C    1.183    72 H    0.940
    12   1 H    0.993 --    62 C    0.959
    13   1 H    0.998 --    67 C    0.958
    14   6 C    3.961 --    17 C    1.316    65 C    1.224    31 N    1.212
    15   1 H    0.999 --    61 C    0.950
    16   8 O    2.375 --    65 C    1.079    39 C    1.047
    17   6 C    3.952 --    68 C    1.428    14 C    1.316    48 H    0.964
    18   1 H    0.999 --    41 C    0.981
    19   6 C    3.996 --    53 C    1.009    42 H    0.985    96 H    0.982
                            47 H    0.981
    20   1 H    0.998 --    79 C    0.963
    21   6 C    3.981 --    46 C    1.434    45 C    1.319    56 C    1.098
    22   1 H    0.997 --    94 C    0.971
    23   1 H    0.998 --   110 C    0.969
    24   1 H    0.998 --    89 C    0.981
    25   6 C    3.961 --    98 C    1.407    30 C    1.399    40 H    0.967
    26   1 H    0.993 --    62 C    0.961
    27   6 C    3.962 --    30 C    1.470   106 C    1.335    59 H    0.968
    28   6 C    3.944 --    67 C    1.738     7 C    0.981    61 C    0.969
    29   6 C    3.972 --    75 N    1.357    87 C    1.263   106 C    1.134
    30   6 C    3.968 --    27 C    1.470    25 C    1.399   109 H    0.971
    31   7 N    3.027 --    39 C    1.539    14 C    1.212
    32   6 C    3.977 --    34 C    1.435    99 C    1.215    81 C    1.063
    33   6 C    3.910 --    49 C    1.402    45 C    1.313    84 O    1.037
    34   6 C    3.965 --    32 C    1.435    87 C    1.152    55 C    1.114
    35   6 C    3.964 --     1 C    1.368    36 C    1.257   104 C    1.099
    36   6 C    3.960 --     5 N    1.462    35 C    1.257   101 C    0.983
    37   6 C    3.970 --    77 C    1.423   107 C    1.415    80 H    0.971
    38   7 N    3.172 --    55 C    1.673    57 C    1.262
    39   6 C    3.903 --    31 N    1.539    73 C    1.136    16 O    1.047
    40   1 H    0.998 --    25 C    0.967
    41   6 C    3.940 --    18 H    0.981    86 H    0.980    58 C    0.975
                            53 C    0.962
    42   1 H    0.998 --    19 C    0.985
    43   6 C    3.979 --    77 C    1.469   104 C    1.348    97 H    0.960
                           107 C    0.107
    44   1 H    0.996 --     1 C    0.970
    45   6 C    3.897 --    21 C    1.319    33 C    1.313    95 H    0.967
    46   6 C    3.828 --    21 C    1.434    84 O    1.148    64 H    0.965
    47   1 H    0.998 --    19 C    0.981
    48   1 H    0.995 --    17 C    0.964
    49   6 C    3.762 --    33 C    1.402    62 C    1.049    94 C    1.028
    50   6 C    3.960 --    82 N    1.748    92 C    0.961     7 C    0.950
    51   1 H    0.998 --    71 C    0.958
    52   6 C    3.967 --    70 C    1.454    87 C    1.310    92 C    0.981
    53   6 C    3.943 --    19 C    1.009    58 C    0.966    94 C    0.966
                            41 C    0.962
    54   1 H    0.997 --   100 C    0.965
    55   6 C    3.954 --    38 N    1.673    34 C    1.114     9 H    0.935
    56   6 C    3.970 --    81 C    1.458    98 C    1.136    21 C    1.098
    57   6 C    3.932 --    88 C    1.550    38 N    1.262   108 H    0.958
    58   6 C    3.944 --    78 H    0.980     2 H    0.976    41 C    0.975
                            53 C    0.966
    59   1 H    0.996 --    27 C    0.968
    60   1 H    0.995 --    94 C    0.958
    61   6 C    3.949 --     8 C    1.031    28 C    0.969    15 H    0.950
                             7 C    0.894
    62   6 C    3.994 --    49 C    1.049   105 H    0.982    26 H    0.961
                            12 H    0.959
    63   1 H    0.997 --    89 C    0.983
    64   1 H    0.997 --    46 C    0.965
    65   6 C    3.905 --   101 C    1.340    14 C    1.224    16 O    1.079
    66   1 H    0.998 --   110 C    0.986
    67   6 C    3.988 --    28 C    1.738   100 C    1.167    13 H    0.958
    68   6 C    3.969 --    17 C    1.428     5 N    1.384   103 H    0.959
    69   1 H    0.997 --    88 C    0.959
    70   6 C    3.979 --    52 C    1.454    79 C    1.375    83 H    0.961
    71   6 C    3.972 --   100 C    1.631    82 N    1.220    51 H    0.958
    72   1 H    0.968 --    11 N    0.940
    73   6 C    3.941 --    91 C    1.415    11 N    1.183    39 C    1.136
                            10 C    0.111
    74   1 H    0.998 --    10 C    0.969
    75   7 N    3.070 --    79 C    1.476    29 C    1.357
    76   6 C    3.969 --   101 C    1.396     1 C    1.381    93 H    0.972
    77   6 C    3.990 --    43 C    1.469    37 C    1.423     3 H    0.970
    78   1 H    0.999 --    58 C    0.980
    79   6 C    3.966 --    75 N    1.476    70 C    1.375    20 H    0.963
    80   1 H    0.999 --    37 C    0.971
    81   6 C    3.977 --    56 C    1.458    88 C    1.229    32 C    1.063
    82   7 N    3.234 --    50 C    1.748    71 C    1.220
    83   1 H    0.997 --    70 C    0.961
    84   8 O    2.389 --    46 C    1.148    33 C    1.037
    85   1 H    0.997 --    91 C    0.972
    86   1 H    0.998 --    41 C    0.980
    87   6 C    3.983 --    52 C    1.310    29 C    1.263    34 C    1.152
    88   6 C    3.975 --    57 C    1.550    81 C    1.229    69 H    0.959
    89   6 C    3.987 --    63 H    0.983    24 H    0.981     4 H    0.980
                            92 C    0.964
    90   1 H    0.999 --   107 C    0.964
    91   6 C    3.954 --    73 C    1.415     8 C    1.353    85 H    0.972
    92   6 C    3.988 --   110 C    0.989    52 C    0.981    89 C    0.964
                            50 C    0.961
    93   1 H    0.999 --    76 C    0.972
    94   6 C    3.995 --    49 C    1.028    22 H    0.971    53 C    0.966
                            60 H    0.958
    95   1 H    0.998 --    45 C    0.967
    96   1 H    0.999 --    19 C    0.982
    97   1 H    0.996 --    43 C    0.960
    98   6 C    3.978 --    25 C    1.407    99 C    1.218    56 C    1.136
    99   6 C    3.986 --   106 C    1.304    98 C    1.218    32 C    1.215
   100   6 C    3.975 --    71 C    1.631    67 C    1.167    54 H    0.965
   101   6 C    3.960 --    76 C    1.396    65 C    1.340    36 C    0.983
   102   1 H    0.996 --   110 C    0.981
   103   1 H    0.997 --    68 C    0.959
   104   6 C    3.980 --     6 N    1.361    43 C    1.348    35 C    1.099
   105   1 H    0.997 --    62 C    0.982
   106   6 C    3.987 --    27 C    1.335    99 C    1.304    29 C    1.134
   107   6 C    3.983 --     6 N    1.462    37 C    1.415    90 H    0.964
                            43 C    0.107
   108   1 H    0.997 --    57 C    0.958
   109   1 H    0.998 --    30 C    0.971
   110   6 C    3.991 --    92 C    0.989    66 H    0.986   102 H    0.981
                            23 H    0.969
   111   1 H    0.998 --     7 C    0.947
 ---------------------------------------------------------------------------

Topologies differ in bond orders
Writing corrected topology to xtbtopo.sdf

molecular dipole:
                 x           y           z       tot (Debye)
 q only:       -1.155      -0.435       2.953
   full:       -1.326      -0.446       2.578       7.455
molecular quadrupole (traceless):
                xx          xy          yy          xz          yz          zz
 q only:        8.020       2.945      31.355      14.489      -6.316     -39.375
  q+dip:       11.855       4.280      24.936      11.130     -13.281     -36.790
   full:        4.506       3.211      35.808       7.223      -8.440     -40.314

           -------------------------------------------------
          |                Geometry Summary                 |
           -------------------------------------------------

      molecular mass/u    :      871.0178075
   center of mass at/Å    :        0.1219766       0.2963210      -0.5844999
  moments of inertia/u·Å² :        0.8508855E+04   0.4773456E+05   0.4901270E+05
rotational constants/cm⁻¹ :        0.1981187E-02   0.3531536E-03   0.3439441E-03

 * 110 selected distances

     #   Z          #   Z                                           value/Å
     8   6 C       10   6 C                                       1.3822908
    10   6 C       11   7 N                                       1.3502149
    14   6 C       17   6 C                                       1.3929080
     7   6 C       28   6 C                                       1.4574168
    25   6 C       30   6 C                                       1.3974044
    27   6 C       30   6 C                                       1.3848396
    14   6 C       31   7 N                                       1.3698734
    32   6 C       34   6 C                                       1.3787529
     1   6 C       35   6 C                                       1.3992755
     5   7 N       36   6 C                                       1.3066073
    35   6 C       36   6 C                                       1.4195381
    16   8 O       39   6 C                                       1.3710139
    31   7 N       39   6 C                                       1.2955266
    25   6 C       40   1 H                                       1.0796949
    18   1 H       41   6 C                                       1.0800355
    19   6 C       42   1 H                                       1.0872824
     1   6 C       44   1 H                                       1.0742568
    21   6 C       45   6 C                                       1.4083282
    33   6 C       45   6 C                                       1.4037336
    21   6 C       46   6 C                                       1.3814659
    19   6 C       47   1 H                                       1.0886819
    17   6 C       48   1 H                                       1.0806913
    33   6 C       49   6 C                                       1.3805973
    19   6 C       53   6 C                                       1.5120260
    41   6 C       53   6 C                                       1.5020546
     9   1 H       55   6 C                                       1.0836867
    38   7 N       55   6 C                                       1.2777402
    21   6 C       56   6 C                                       1.4420753
    38   7 N       57   6 C                                       1.3457838
     2   1 H       58   6 C                                       1.0801203
    41   6 C       58   6 C                                       1.5010337
    53   6 C       58   6 C                                       1.5005071
    27   6 C       59   1 H                                       1.0781100
     7   6 C       61   6 C                                       1.5395313 (max)
     8   6 C       61   6 C                                       1.4704900
    15   1 H       61   6 C                                       1.0851172
    28   6 C       61   6 C                                       1.4676114
    12   1 H       62   6 C                                       1.0924983
    26   1 H       62   6 C                                       1.0907920
    46   6 C       64   1 H                                       1.0720516
    14   6 C       65   6 C                                       1.4207507
    16   8 O       65   6 C                                       1.3577966
    13   1 H       67   6 C                                       1.0814620
    28   6 C       67   6 C                                       1.3279698
     5   7 N       68   6 C                                       1.3231350
    17   6 C       68   6 C                                       1.3843753
    52   6 C       70   6 C                                       1.3884232
    51   1 H       71   6 C                                       1.0843902
    11   7 N       72   1 H                                       1.0069897 (min)
    11   7 N       73   6 C                                       1.3675899
    39   6 C       73   6 C                                       1.4205428
    10   6 C       74   1 H                                       1.0726067
    29   6 C       75   7 N                                       1.3319750
     1   6 C       76   6 C                                       1.3929831
     3   1 H       77   6 C                                       1.0817548
    37   6 C       77   6 C                                       1.3885084
    43   6 C       77   6 C                                       1.3811996
    58   6 C       78   1 H                                       1.0797980
    20   1 H       79   6 C                                       1.0825800
    70   6 C       79   6 C                                       1.3887353
    75   7 N       79   6 C                                       1.3090890
    37   6 C       80   1 H                                       1.0792966
    56   6 C       81   6 C                                       1.3886387
    50   6 C       82   7 N                                       1.2661411
    71   6 C       82   7 N                                       1.3557526
    70   6 C       83   1 H                                       1.0751412
    33   6 C       84   8 O                                       1.3757704
    46   6 C       84   8 O                                       1.3424409
    41   6 C       86   1 H                                       1.0794747
    29   6 C       87   6 C                                       1.4345562
    52   6 C       87   6 C                                       1.4234409
    57   6 C       88   6 C                                       1.3635860
    69   1 H       88   6 C                                       1.0818284
    81   6 C       88   6 C                                       1.4161070
     4   1 H       89   6 C                                       1.0874436
    24   1 H       89   6 C                                       1.0864907
    63   1 H       89   6 C                                       1.0870450
     8   6 C       91   6 C                                       1.4037130
    73   6 C       91   6 C                                       1.3853357
    85   1 H       91   6 C                                       1.0705825
    76   6 C       93   1 H                                       1.0748804
    22   1 H       94   6 C                                       1.0933904
    53   6 C       94   6 C                                       1.5309906
    60   1 H       94   6 C                                       1.0938122
    45   6 C       95   1 H                                       1.0674666
    19   6 C       96   1 H                                       1.0892746
    43   6 C       97   1 H                                       1.0775087
    25   6 C       98   6 C                                       1.3841099
    32   6 C       99   6 C                                       1.4068533
    98   6 C       99   6 C                                       1.4133141
    54   1 H      100   6 C                                       1.0805661
    71   6 C      100   6 C                                       1.3578467
    65   6 C      101   6 C                                       1.3802107
    76   6 C      101   6 C                                       1.3882123
    68   6 C      103   1 H                                       1.0874410
     6   7 N      104   6 C                                       1.3383069
    43   6 C      104   6 C                                       1.4002569
    62   6 C      105   1 H                                       1.0860400
    27   6 C      106   6 C                                       1.3992701
    99   6 C      106   6 C                                       1.3865733
     6   7 N      107   6 C                                       1.3168283
    37   6 C      107   6 C                                       1.3872791
    90   1 H      107   6 C                                       1.0848366
Note: The following floating-point exceptions are signalling: IEEE_UNDERFLOW_FLAG IEEE_DENORMAL
normal termination of xtb
    57   6 C      108   1 H                                       1.0848772
    30   6 C      109   1 H                                       1.0810888
    23   1 H      110   6 C                                       1.0823029
    66   1 H      110   6 C                                       1.0883333
    92   6 C      110   6 C                                       1.5344840
   102   1 H      110   6 C                                       1.0857746
     7   6 C      111   1 H                                       1.0840585

 * 5 distinct bonds (by element types)

   Z      Z             #   av. dist./Å        max./Å        min./Å
   1 H    6 C          43     1.0824318     1.0938122     1.0674666
   6 C    6 C          48     1.4166697     1.5395313     1.3279698
   1 H    7 N           1     1.0069897     1.0069897     1.0069897
   6 C    7 N          14     1.3253260     1.3698734     1.2661411
   6 C    8 O           4     1.3617555     1.3757704     1.3424409


optimized geometry written to: xtbopt.sdf


           -------------------------------------------------
          | TOTAL ENERGY             -175.100606944368 Eh   |
          | GRADIENT NORM               0.002670462776 Eh/α |
          | HOMO-LUMO GAP               0.142875547878 eV   |
           -------------------------------------------------

------------------------------------------------------------------------
 * finished run on 2026/08/20 at 06:26:20.670     
------------------------------------------------------------------------
 total:
 * wall-time:     0 d,  0 h,  0 min, 22.270 sec
 *  cpu-time:     0 d,  0 h,  0 min, 22.241 sec
 * ratio c/w:     0.999 speedup
 SCF:
 * wall-time:     0 d,  0 h,  0 min,  0.443 sec
 *  cpu-time:     0 d,  0 h,  0 min,  0.443 sec
 * ratio c/w:     1.000 speedup
 ANC optimizer:
 * wall-time:     0 d,  0 h,  0 min, 21.780 sec
 *  cpu-time:     0 d,  0 h,  0 min, 21.765 sec
 * ratio c/w:     0.999 speedup

