      -----------------------------------------------------------      
     |                   =====================                   |     
     |                           x T B                           |     
     |                   =====================                   |     
     |                         S. Grimme                         |     
     |          Mulliken Center for Theoretical Chemistry        |     
     |                    University of Bonn                     |     
      -----------------------------------------------------------      

   * xtb version 6.7.1 (edcfbbe) compiled by 'conda@5dfe00f5fb80' on 2026-06-10

   xtb is free software: you can redistribute it and/or modify it under
   the terms of the GNU Lesser General Public License as published by
   the Free Software Foundation, either version 3 of the License, or
   (at your option) any later version.
   
   xtb is distributed in the hope that it will be useful,
   but WITHOUT ANY WARRANTY; without even the implied warranty of
   MERCHANTABILITY or FITNESS FOR A PARTICULAR PURPOSE.  See the
   GNU Lesser General Public License for more details.
   
   Cite this work as:
   * C. Bannwarth, E. Caldeweyher, S. Ehlert, A. Hansen, P. Pracht,
     J. Seibert, S. Spicher, S. Grimme, WIREs Comput. Mol. Sci., 2020, 11,
     e01493. DOI: 10.1002/wcms.1493
   
   for GFN2-xTB:
   * C. Bannwarth, S. Ehlert and S. Grimme., J. Chem. Theory Comput., 2019,
     15, 1652-1671. DOI: 10.1021/acs.jctc.8b01176
   for GFN1-xTB:
   * S. Grimme, C. Bannwarth, P. Shushkov, J. Chem. Theory Comput., 2017,
     13, 1989-2009. DOI: 10.1021/acs.jctc.7b00118
   for GFN0-xTB:
   * P. Pracht, E. Caldeweyher, S. Ehlert, S. Grimme, ChemRxiv, 2019, preprint.
     DOI: 10.26434/chemrxiv.8326202.v1
   for GFN-FF:
   * S. Spicher and S. Grimme, Angew. Chem. Int. Ed., 2020, 59, 15665-15673.
     DOI: 10.1002/anie.202004239
   
   for ALPB and GBSA implicit solvation:
   * S. Ehlert, M. Stahn, S. Spicher, S. Grimme, J. Chem. Theory Comput.,
     2021, 17, 4250-4261. DOI: 10.1021/acs.jctc.1c00471
   
   for ddCOSMO and CPCM-X implicit solvation:
   * M. Stahn, S. Ehlert, S. Grimme, J. Phys. Chem. A,
     2023, XX, XXXX-XXXX. DOI: 10.1021/acs.jpca.3c04382
   
   for DFT-D4:
   * E. Caldeweyher, C. Bannwarth and S. Grimme, J. Chem. Phys., 2017,
     147, 034112. DOI: 10.1063/1.4993215
   * E. Caldeweyher, S. Ehlert, A. Hansen, H. Neugebauer, S. Spicher,
     C. Bannwarth and S. Grimme, J. Chem. Phys., 2019, 150, 154122.
     DOI: 10.1063/1.5090222
   * E. Caldeweyher, J.-M. Mewes, S. Ehlert and S. Grimme, Phys. Chem. Chem. Phys.
     2020, 22, 8499-8512. DOI: 10.1039/D0CP00502A
   
   for sTDA-xTB:
   * S. Grimme and C. Bannwarth, J. Chem. Phys., 2016, 145, 054103.
     DOI: 10.1063/1.4959605
   
   in the mass-spec context:
   * V. Asgeirsson, C. Bauer and S. Grimme, Chem. Sci., 2017, 8, 4879.
     DOI: 10.1039/c7sc00601b
   * J. Koopman and S. Grimme, ACS Omega 2019, 4, 12, 15120-15133.
     DOI: 10.1021/acsomega.9b02011
   
   for metadynamics refer to:
   * S. Grimme, J. Chem. Theory Comput., 2019, 155, 2847-2862
     DOI: 10.1021/acs.jctc.9b00143
   
   for SPH calculations refer to:
   * S. Spicher and S. Grimme, J. Chem. Theory Comput., 2021, 17, 1701-1714
     DOI: 10.1021/acs.jctc.0c01306
   
   for ONIOM refer to:
   * C. Plett, A. Katbashev, S. Ehlert, S. Grimme, M. Bursch,
     Phys. Chem. Chem. Phys., 2023, 25, 17860-17868. DOI: 10.1039/D3CP02178E
   
   for DIPRO refer to:
   * J. Kohn, N. Gildemeister, S. Grimme, D. Fazzi, A. Hansen,
     J. Chem. Phys., 2023, just accepted.
   
   for PTB refer to:
   * S. Grimme, M. Mueller, A. Hansen, J. Chem. Phys., 2023, 158, 124111.
     DOI: 10.1063/5.0137838
   
   with help from (in alphabetical order)
   P. Atkinson, C. Bannwarth, F. Bohle, G. Brandenburg, E. Caldeweyher
   M. Checinski, S. Dohm, S. Ehlert, S. Ehrlich, I. Gerasimov, C. Hölzer
   A. Katbashev, J. Kohn, J. Koopman, C. Lavigne, S. Lehtola, F. März, M. Müller,
   F. Musil, H. Neugebauer, J. Pisarek, C. Plett, P. Pracht, F. Pultar,
   J. Seibert, P. Shushkov, S. Spicher, M. Stahn, M. Steiner, T. Strunk,
   J. Stückrath, T. Rose, and J. Unsleber
   
 * started run on 2026/08/20 at 06:25:58.400     
   ID    Z sym.   atoms
    1    1 H      1, 3, 4, 8, 13, 18, 21, 26, 30, 36, 37, 39, 41, 43, 44, 56,
                  58-61, 65, 66, 68
    2    6 C      2, 5, 7, 9-11, 14-16, 19, 20, 22-25, 29, 31-35, 38, 40, 42,
                  45-49, 51-55, 57, 63, 64, 67, 69, 70
    3    7 N      6, 12, 27, 28, 50, 62
    4   16 S      17

           -------------------------------------------------
          |                Calculation Setup                |
           -------------------------------------------------

          program call               : xtb 00043.sdf --opt loose --cycles 500
          coordinate file            : 00043.sdf
          omp threads                :                     1


           -------------------------------------------------
          |                 G F N 2 - x T B                 |
           -------------------------------------------------

        Reference                      10.1021/acs.jctc.8b01176
      * Hamiltonian:
        H0-scaling (s, p, d)           1.850000    2.230000    2.230000
        zeta-weighting                 0.500000
      * Dispersion:
        s8                             2.700000
        a1                             0.520000
        a2                             5.000000
        s9                             5.000000
      * Repulsion:
        kExp                           1.500000    1.000000
        rExp                           1.000000
      * Coulomb:
        alpha                          2.000000
        third order                    shell-resolved
        anisotropic                    true
        a3                             3.000000
        a5                             4.000000
        cn-shift                       1.200000
        cn-exp                         4.000000
        max-rad                        5.000000


          ...................................................
          :                      SETUP                      :
          :.................................................:
          :  # basis functions                 217          :
          :  # atomic orbitals                 216          :
          :  # shells                          118          :
          :  # electrons                       219          :
          :  max. iterations                   250          :
          :  Hamiltonian                  GFN2-xTB          :
          :  restarted?                      false          :
          :  GBSA solvation                  false          :
          :  PC potential                    false          :
          :  electronic temp.          300.0000000     K    :
          :  accuracy                    1.0000000          :
          :  -> integral cutoff          0.2500000E+02      :
          :  -> integral neglect         0.1000000E-07      :
          :  -> SCF convergence          0.1000000E-05 Eh   :
          :  -> wf. convergence          0.1000000E-03 e    :
          :  Broyden damping             0.4000000          :
          :  net charge                          0          :
          :  unpaired electrons                  0          :
          ...................................................

 iter      E             dE          RMSdq      gap      omega  full diag
   1   -119.1434135 -0.119143E+03  0.516E+00    0.44       0.0  T
   2   -117.0547646  0.208865E+01  0.466E+00    0.36       1.0  T
   3   -115.1762813  0.187848E+01  0.468E+00    0.24       1.0  T
   4   -118.7048450 -0.352856E+01  0.256E+00    0.51       1.0  T
   5   -119.0323998 -0.327555E+00  0.203E+00    0.80       1.0  T
   6   -119.2686372 -0.236237E+00  0.124E+00    0.36       1.0  T
   7   -119.4079528 -0.139316E+00  0.732E-01    0.03       1.0  T
   8   -119.3825996  0.253532E-01  0.928E-01    0.23       1.0  T
   9   -119.4558269 -0.732273E-01  0.600E-01    0.15       1.0  T
  10   -119.4601019 -0.427505E-02  0.491E-01    0.10       1.0  T
  11   -119.2787391  0.181363E+00  0.112E+00    0.24       1.0  T
  12   -119.3452781 -0.665391E-01  0.933E-01    0.09       1.0  T
  13   -119.4652250 -0.119947E+00  0.929E-02    0.05       1.0  T
  14   -119.4623515  0.287355E-02  0.189E-01    0.05       1.0  T
  15   -119.4647782 -0.242676E-02  0.121E-01    0.05       1.0  T
  16   -119.4626549  0.212332E-02  0.140E-01    0.07       1.0  T
  17   -119.4644924 -0.183752E-02  0.824E-02    0.04       1.0  T
  18   -119.4655668 -0.107439E-02  0.680E-03    0.06       1.8  T
  19   -119.4654879  0.789440E-04  0.233E-02    0.05       1.0  T
  20   -119.4655683 -0.804233E-04  0.399E-03    0.06       3.0  T
  21   -119.4655697 -0.137215E-05  0.312E-03    0.05       3.8  T
  22   -119.4655704 -0.780862E-06  0.178E-03    0.05       6.7  T
  23   -119.4655707 -0.230280E-06  0.889E-04    0.05      13.4  T
  24   -119.4655707 -0.216111E-07  0.554E-04    0.05      21.6  T

   *** convergence criteria satisfied after 24 iterations ***

         #    Occupation            Energy/Eh            Energy/eV
      -------------------------------------------------------------
         1        2.0000           -0.7376947             -20.0737
       ...           ...                  ...                  ...
       104        2.0000           -0.3911601             -10.6440
       105        2.0000           -0.3887965             -10.5797
       106        2.0000           -0.3723401             -10.1319
       107        2.0000           -0.3498777              -9.5207
       108        2.0000           -0.3487478              -9.4899
       109        1.7406           -0.3279226              -8.9232
       110        0.9593           -0.3255079              -8.8575 (HOMO)
       111        0.3002           -0.3234957              -8.8028 (LUMO)
       112                         -0.2972361              -8.0882
       113                         -0.2884194              -7.8483
       114                         -0.2615101              -7.1161
       115                         -0.2553720              -6.9490
       ...                                ...                  ...
       216                          1.3402578              36.4703
      -------------------------------------------------------------
                  HL-Gap            0.0020122 Eh            0.0548 eV
             Fermi-level           -0.3256191 Eh           -8.8605 eV

 SCC (total)                   0 d,  0 h,  0 min,  0.181 sec
 SCC setup                      ...        0 min,  0.001 sec (  0.330%)
 Dispersion                     ...        0 min,  0.001 sec (  0.803%)
 classical contributions        ...        0 min,  0.000 sec (  0.108%)
 integral evaluation            ...        0 min,  0.013 sec (  7.330%)
 iterations                     ...        0 min,  0.124 sec ( 68.231%)
 molecular gradient             ...        0 min,  0.040 sec ( 22.244%)
 printout                       ...        0 min,  0.002 sec (  0.948%)

         :::::::::::::::::::::::::::::::::::::::::::::::::::::
         ::                     SUMMARY                     ::
         :::::::::::::::::::::::::::::::::::::::::::::::::::::
         :: total energy            -117.769003403079 Eh    ::
         :: gradient norm              0.311586504303 Eh/a0 ::
         :: HOMO-LUMO gap              0.054754297797 eV    ::
         ::.................................................::
         :: SCC energy              -119.466469845645 Eh    ::
         :: -> isotropic ES            0.041747929588 Eh    ::
         :: -> anisotropic ES          0.012888268577 Eh    ::
         :: -> anisotropic XC          0.101999570596 Eh    ::
         :: -> dispersion             -0.093357264960 Eh    ::
         :: repulsion energy           1.697466442566 Eh    ::
         :: add. restraining           0.000000000000 Eh    ::
         :: total charge               0.000000000225 e     ::
         :::::::::::::::::::::::::::::::::::::::::::::::::::::

      ----------------------------------------------------------- 
     |                   =====================                   |
     |                        A N C O P T                        |
     |                   =====================                   |
     |               Approximate Normal Coordinate               |
     |                Rational Function Optimizer                |
      ----------------------------------------------------------- 
      ----------------------------------------------------------- 
     |                   =====================                   |
     |                        A N C O P T                        |
     |                   =====================                   |
     |               Approximate Normal Coordinate               |
     |                Rational Function Optimizer                |
      ----------------------------------------------------------- 

          ...................................................
          :                      SETUP                      :
          :.................................................:
          :   optimization level             loose          :
          :   max. optcycles                   500          :
          :   ANC micro-cycles                  20          :
          :   degrees of freedom               204          :
          :.................................................:
          :   RF solver                   davidson          :
          :   write xtbopt.log                true          :
          :   linear?                        false          :
          :   energy convergence         0.5000000E-04 Eh   :
          :   grad. convergence          0.4000000E-02 Eh/α :
          :   maxmium RF displ.          1.0000000          :
          :   Hlow (freq-cutoff)         0.1000000E-01      :
          :   Hmax (freq-cutoff)         5.0000000          :
          :   S6 in model hess.         20.0000000          :
          ...................................................

generating ANC from exact Hessian ...
Using Lindh-Hessian (1995)
 Shifting diagonal of input Hessian by    9.9675720146361127E-003
 Lowest  eigenvalues of input Hessian
    0.000000    0.000000    0.000000    0.000000    0.000000    0.010000
    0.000000    0.010095    0.010153    0.010208    0.010252    0.010348
    0.010797    0.010872    0.011031    0.011308    0.011730    0.012383
 Highest eigenvalues
    1.920386    1.938780    1.967219    1.999215    2.029093    2.920813


........................................................................
.............................. CYCLE    1 ..............................
........................................................................

 iter      E             dE          RMSdq      gap      omega  full diag
   1   -119.4655707 -0.119466E+03  0.620E-04    0.05       0.0  T
   2   -119.4655183  0.523631E-04  0.179E-02    0.05       1.0  T
   3   -119.4655707 -0.523682E-04  0.598E-04    0.05      20.0  T
   4   -119.4655707 -0.209458E-08  0.630E-04    0.05      19.0  T
   5   -119.4655707 -0.432561E-07  0.259E-04    0.05      46.2  T
     SCC iter.                  ...        0 min,  0.027 sec
     gradient                   ...        0 min,  0.040 sec
 * total energy  :  -117.7690034 Eh     change       -0.3418293E-07 Eh
   gradient norm :     0.3115860 Eh/α   predicted     0.0000000E+00 (-100.00%)
   displ. norm   :     0.6275672 α      lambda       -0.1327773E+00
   maximum displ.:     0.1539837 α      in ANC's #33, #98, #94, ...

........................................................................
.............................. CYCLE    2 ..............................
........................................................................

 iter      E             dE          RMSdq      gap      omega  full diag
   1   -119.6165953 -0.119617E+03  0.443E-01    0.08       0.0  T
   2   -119.3375306  0.279065E+00  0.147E+00    0.23       1.0  T
   3   -119.5939980 -0.256467E+00  0.476E-01    0.03       1.0  T
   4   -119.5371954  0.568027E-01  0.804E-01    0.39       1.0  T
   5   -119.6202273 -0.830319E-01  0.217E-01    0.18       1.0  T
   6   -119.6154720  0.475531E-02  0.239E-01    0.06       1.0  T
   7   -119.6221761 -0.670414E-02  0.135E-01    0.13       1.0  T
   8   -119.6226124 -0.436300E-03  0.109E-01    0.13       1.0  T
   9   -119.6228786 -0.266237E-03  0.732E-02    0.12       1.0  T
  10   -119.6231583 -0.279701E-03  0.201E-02    0.11       1.0  T
  11   -119.6231719 -0.135564E-04  0.133E-02    0.11       1.0  T
  12   -119.6231779 -0.598947E-05  0.450E-03    0.11       2.7  T
  13   -119.6231801 -0.217735E-05  0.944E-04    0.11      12.7  T
  14   -119.6231801 -0.252540E-07  0.437E-04    0.11      27.4  T
  15   -119.6231801 -0.100304E-07  0.301E-04    0.11      39.7  T
     SCC iter.                  ...        0 min,  0.081 sec
     gradient                   ...        0 min,  0.040 sec
 * total energy  :  -117.8746907 Eh     change       -0.1056873E+00 Eh
   gradient norm :     0.1681521 Eh/α   predicted    -0.9272361E-01 ( -12.27%)
   displ. norm   :     0.7112746 α      lambda       -0.8739800E-01
   maximum displ.:     0.2018732 α      in ANC's #33, #16, #34, ...

........................................................................
.............................. CYCLE    3 ..............................
........................................................................

 iter      E             dE          RMSdq      gap      omega  full diag
   1   -119.7918109 -0.119792E+03  0.399E-01    0.17       0.0  T
   2   -119.7893297  0.248112E-02  0.339E-01    0.27       1.0  T
   3   -119.7901411 -0.811325E-03  0.288E-01    0.17       1.0  T
   4   -119.7906970 -0.555980E-03  0.192E-01    0.14       1.0  T
   5   -119.7935276 -0.283053E-02  0.740E-02    0.29       1.0  T
   6   -119.7941054 -0.577824E-03  0.175E-02    0.20       1.0  T
   7   -119.7941184 -0.130127E-04  0.846E-03    0.20       1.4  T
   8   -119.7941182  0.214965E-06  0.508E-03    0.19       2.4  T
   9   -119.7941203 -0.216090E-05  0.224E-03    0.19       5.3  T
  10   -119.7941206 -0.275503E-06  0.105E-03    0.19      11.4  T
  11   -119.7941207 -0.324794E-07  0.702E-04    0.19      17.0  T
  12   -119.7941207 -0.231940E-07  0.250E-04    0.19      47.7  T
     SCC iter.                  ...        0 min,  0.061 sec
     gradient                   ...        0 min,  0.040 sec
 * total energy  :  -117.9383890 Eh     change       -0.6369828E-01 Eh
   gradient norm :     0.0728304 Eh/α   predicted    -0.6580693E-01 (   3.31%)
   displ. norm   :     0.7774486 α      lambda       -0.4332085E-01
   maximum displ.:     0.3328888 α      in ANC's #16, #33, #34, ...

........................................................................
.............................. CYCLE    4 ..............................
........................................................................

 iter      E             dE          RMSdq      gap      omega  full diag
   1   -119.8805578 -0.119881E+03  0.270E-01    0.21       0.0  T
   2   -119.8799856  0.572166E-03  0.201E-01    0.22       1.0  T
   3   -119.8790806  0.905033E-03  0.198E-01    0.20       1.0  T
   4   -119.8804589 -0.137832E-02  0.817E-02    0.18       1.0  T
   5   -119.8810347 -0.575769E-03  0.250E-02    0.23       1.0  T
   6   -119.8810915 -0.568534E-04  0.765E-03    0.21       1.6  T
   7   -119.8810939 -0.239227E-05  0.432E-03    0.21       2.8  T
   8   -119.8810946 -0.612712E-06  0.196E-03    0.21       6.1  T
   9   -119.8810947 -0.188040E-06  0.114E-03    0.21      10.5  T
  10   -119.8810948 -0.256095E-07  0.607E-04    0.21      19.7  T
  11   -119.8810948 -0.117957E-07  0.257E-04    0.21      46.4  T
     SCC iter.                  ...        0 min,  0.055 sec
     gradient                   ...        0 min,  0.051 sec
 * total energy  :  -117.9748698 Eh     change       -0.3648082E-01 Eh
   gradient norm :     0.0529517 Eh/α   predicted    -0.3475268E-01 (  -4.74%)
   displ. norm   :     0.8312315 α      lambda       -0.3288002E-01
   maximum displ.:     0.4305050 α      in ANC's #16, #15, #33, ...

........................................................................
.............................. CYCLE    5 ..............................
........................................................................

 iter      E             dE          RMSdq      gap      omega  full diag
   1   -119.9415868 -0.119942E+03  0.216E-01    0.20       0.0  T
   2   -119.9413522  0.234654E-03  0.159E-01    0.22       1.0  T
   3   -119.9407133  0.638924E-03  0.151E-01    0.19       1.0  T
   4   -119.9416377 -0.924450E-03  0.567E-02    0.19       1.0  T
   5   -119.9418909 -0.253151E-03  0.182E-02    0.22       1.0  T
   6   -119.9419224 -0.315548E-04  0.663E-03    0.20       1.8  T
   7   -119.9419253 -0.290152E-05  0.311E-03    0.21       3.8  T
   8   -119.9419255 -0.193723E-06  0.182E-03    0.20       6.6  T
   9   -119.9419257 -0.191508E-06  0.771E-04    0.20      15.5  T
  10   -119.9419257 -0.114231E-07  0.413E-04    0.20      28.9  T
     SCC iter.                  ...        0 min,  0.056 sec
     gradient                   ...        0 min,  0.041 sec
 * total energy  :  -118.0031176 Eh     change       -0.2824774E-01 Eh
   gradient norm :     0.0344098 Eh/α   predicted    -0.2779917E-01 (  -1.59%)
   displ. norm   :     0.8564708 α      lambda       -0.2497014E-01
   maximum displ.:     0.5079494 α      in ANC's #16, #15, #33, ...

........................................................................
.............................. CYCLE    6 ..............................
........................................................................

 iter      E             dE          RMSdq      gap      omega  full diag
   1   -119.9885900 -0.119989E+03  0.189E-01    0.20       0.0  T
   2   -119.9884782  0.111782E-03  0.134E-01    0.19       1.0  T
   3   -119.9879402  0.538015E-03  0.129E-01    0.20       1.0  T
   4   -119.9886407 -0.700504E-03  0.507E-02    0.18       1.0  T
   5   -119.9888354 -0.194668E-03  0.140E-02    0.21       1.0  T
   6   -119.9888516 -0.162318E-04  0.669E-03    0.19       1.8  T
   7   -119.9888556 -0.401770E-05  0.304E-03    0.20       3.9  T
   8   -119.9888559 -0.320210E-06  0.182E-03    0.19       6.6  T
   9   -119.9888561 -0.199586E-06  0.584E-04    0.19      20.5  T
  10   -119.9888562 -0.803963E-08  0.324E-04    0.19      36.9  T
     SCC iter.                  ...        0 min,  0.055 sec
     gradient                   ...        0 min,  0.041 sec
 * total energy  :  -118.0247940 Eh     change       -0.2167638E-01 Eh
   gradient norm :     0.0293275 Eh/α   predicted    -0.2164340E-01 (  -0.15%)
   displ. norm   :     0.8716218 α      lambda       -0.2022311E-01
   maximum displ.:     0.5375568 α      in ANC's #16, #15, #13, ...

........................................................................
.............................. CYCLE    7 ..............................
........................................................................

 iter      E             dE          RMSdq      gap      omega  full diag
   1   -120.0273630 -0.120027E+03  0.183E-01    0.19       0.0  T
   2   -120.0272632  0.998053E-04  0.125E-01    0.17       1.0  T
   3   -120.0264929  0.770267E-03  0.129E-01    0.22       1.0  T
   4   -120.0273961 -0.903126E-03  0.437E-02    0.17       1.0  T
   5   -120.0275496 -0.153583E-03  0.119E-02    0.19       1.0  T
   6   -120.0275604 -0.107269E-04  0.723E-03    0.18       1.7  T
   7   -120.0275655 -0.513250E-05  0.309E-03    0.19       3.9  T
   8   -120.0275659 -0.353053E-06  0.180E-03    0.18       6.6  T
   9   -120.0275661 -0.206089E-06  0.522E-04    0.18      22.9  T
  10   -120.0275661 -0.874788E-08  0.278E-04    0.18      43.0  T
     SCC iter.                  ...        0 min,  0.056 sec
     gradient                   ...        0 min,  0.041 sec
 * total energy  :  -118.0422793 Eh     change       -0.1748532E-01 Eh
   gradient norm :     0.0278933 Eh/α   predicted    -0.1779356E-01 (   1.76%)
   displ. norm   :     0.8743711 α      lambda       -0.1677370E-01
   maximum displ.:     0.5590245 α      in ANC's #16, #15, #13, ...

........................................................................
.............................. CYCLE    8 ..............................
........................................................................

 iter      E             dE          RMSdq      gap      omega  full diag
   1   -120.0628546 -0.120063E+03  0.170E-01    0.18       0.0  T
   2   -120.0626973  0.157303E-03  0.118E-01    0.16       1.0  T
   3   -120.0618097  0.887575E-03  0.127E-01    0.24       1.0  T
   4   -120.0629256 -0.111592E-02  0.323E-02    0.17       1.0  T
   5   -120.0630060 -0.803972E-04  0.875E-03    0.18       1.4  T
   6   -120.0630105 -0.452930E-05  0.511E-03    0.17       2.3  T
   7   -120.0630122 -0.169705E-05  0.342E-03    0.18       3.5  T
   8   -120.0630130 -0.733252E-06  0.192E-03    0.17       6.2  T
   9   -120.0630133 -0.304449E-06  0.602E-04    0.17      19.9  T
  10   -120.0630133 -0.149974E-07  0.257E-04    0.17      46.6  T
     SCC iter.                  ...        0 min,  0.054 sec
     gradient                   ...        0 min,  0.041 sec
 * total energy  :  -118.0569288 Eh     change       -0.1464956E-01 Eh
   gradient norm :     0.0215617 Eh/α   predicted    -0.1479880E-01 (   1.02%)
   displ. norm   :     0.8711073 α      lambda       -0.1349409E-01
   maximum displ.:     0.5400525 α      in ANC's #16, #15, #13, ...

........................................................................
.............................. CYCLE    9 ..............................
........................................................................

 iter      E             dE          RMSdq      gap      omega  full diag
   1   -120.0947180 -0.120095E+03  0.155E-01    0.18       0.0  T
   2   -120.0945778  0.140195E-03  0.106E-01    0.15       1.0  T
   3   -120.0936441  0.933718E-03  0.121E-01    0.24       1.0  T
   4   -120.0947827 -0.113858E-02  0.213E-02    0.17       1.0  T
   5   -120.0948151 -0.324628E-04  0.800E-03    0.18       1.5  T
   6   -120.0948186 -0.349722E-05  0.582E-03    0.17       2.1  T
   7   -120.0948221 -0.347766E-05  0.274E-03    0.17       4.4  T
   8   -120.0948225 -0.371891E-06  0.145E-03    0.17       8.2  T
   9   -120.0948226 -0.139331E-06  0.552E-04    0.17      21.7  T
  10   -120.0948226 -0.183255E-07  0.215E-04    0.17      55.7  T
     SCC iter.                  ...        0 min,  0.052 sec
     gradient                   ...        0 min,  0.042 sec
 * total energy  :  -118.0689265 Eh     change       -0.1199764E-01 Eh
   gradient norm :     0.0158925 Eh/α   predicted    -0.1186690E-01 (  -1.09%)
   displ. norm   :     0.8649977 α      lambda       -0.1079751E-01
   maximum displ.:     0.5136915 α      in ANC's #16, #15, #13, ...

........................................................................
.............................. CYCLE   10 ..............................
........................................................................

 iter      E             dE          RMSdq      gap      omega  full diag
   1   -120.1227166 -0.120123E+03  0.155E-01    0.18       0.0  T
   2   -120.1225690  0.147659E-03  0.105E-01    0.15       1.0  T
   3   -120.1215192  0.104974E-02  0.121E-01    0.26       1.0  T
   4   -120.1227792 -0.126000E-02  0.200E-02    0.18       1.0  T
   5   -120.1228065 -0.272341E-04  0.713E-03    0.17       1.7  T
   6   -120.1228076 -0.116746E-05  0.433E-03    0.17       2.8  T
   7   -120.1228073  0.336460E-06  0.380E-03    0.17       3.1  T
   8   -120.1228090 -0.168717E-05  0.127E-03    0.17       9.4  T
   9   -120.1228091 -0.909135E-07  0.726E-04    0.17      16.5  T
  10   -120.1228091 -0.538252E-07  0.204E-04    0.17      58.5  T
     SCC iter.                  ...        0 min,  0.054 sec
     gradient                   ...        0 min,  0.042 sec
 * total energy  :  -118.0784295 Eh     change       -0.9503044E-02 Eh
   gradient norm :     0.0132537 Eh/α   predicted    -0.9438217E-02 (  -0.68%)
   displ. norm   :     0.8489084 α      lambda       -0.8350038E-02
   maximum displ.:     0.4616145 α      in ANC's #16, #15, #13, ...

........................................................................
.............................. CYCLE   11 ..............................
........................................................................

 iter      E             dE          RMSdq      gap      omega  full diag
   1   -120.1456086 -0.120146E+03  0.158E-01    0.18       0.0  T
   2   -120.1454006  0.208062E-03  0.107E-01    0.14       1.0  T
   3   -120.1443299  0.107070E-02  0.120E-01    0.29       1.0  T
   4   -120.1455959 -0.126605E-02  0.306E-02    0.21       1.0  T
   5   -120.1456869 -0.909839E-04  0.122E-02    0.17       1.0  T
   6   -120.1456887 -0.180255E-05  0.788E-03    0.18       1.5  T
   7   -120.1456946 -0.588253E-05  0.342E-03    0.17       3.5  T
   8   -120.1456956 -0.964198E-06  0.138E-03    0.17       8.7  T
   9   -120.1456955  0.320827E-07  0.106E-03    0.17      11.3  T
  10   -120.1456957 -0.141036E-06  0.246E-04    0.17      48.5  T
  11   -120.1456957 -0.198034E-08  0.120E-04    0.17      99.9  T
     SCC iter.                  ...        0 min,  0.060 sec
     gradient                   ...        0 min,  0.042 sec
 * total energy  :  -118.0856010 Eh     change       -0.7171526E-02 Eh
   gradient norm :     0.0113769 Eh/α   predicted    -0.7183730E-02 (   0.17%)
   displ. norm   :     0.8217228 α      lambda       -0.6182380E-02
   maximum displ.:     0.3986561 α      in ANC's #16, #15, #7, ...

........................................................................
.............................. CYCLE   12 ..............................
........................................................................

 iter      E             dE          RMSdq      gap      omega  full diag
   1   -120.1636906 -0.120164E+03  0.176E-01    0.19       0.0  T
   2   -120.1635516  0.139093E-03  0.111E-01    0.15       1.0  T
   3   -120.1622684  0.128312E-02  0.124E-01    0.31       1.0  T
   4   -120.1636633 -0.139483E-02  0.310E-02    0.21       1.0  T
   5   -120.1637610 -0.977672E-04  0.122E-02    0.18       1.0  T
   6   -120.1637637 -0.262548E-05  0.751E-03    0.18       1.6  T
   7   -120.1637683 -0.462970E-05  0.369E-03    0.17       3.2  T
   8   -120.1637695 -0.120232E-05  0.130E-03    0.17       9.2  T
   9   -120.1637694  0.480650E-07  0.977E-04    0.17      12.2  T
  10   -120.1637696 -0.117848E-06  0.256E-04    0.17      46.7  T
     SCC iter.                  ...        0 min,  0.054 sec
     gradient                   ...        0 min,  0.042 sec
 * total energy  :  -118.0906870 Eh     change       -0.5085980E-02 Eh
   gradient norm :     0.0105228 Eh/α   predicted    -0.5178453E-02 (   1.82%)
   displ. norm   :     0.7733217 α      lambda       -0.4275386E-02
   maximum displ.:     0.3583838 α      in ANC's #7, #15, #16, ...

........................................................................
.............................. CYCLE   13 ..............................
........................................................................

 iter      E             dE          RMSdq      gap      omega  full diag
   1   -120.1797171 -0.120180E+03  0.152E-01    0.19       0.0  T
   2   -120.1796037  0.113412E-03  0.965E-02    0.15       1.0  T
   3   -120.1786521  0.951575E-03  0.105E-01    0.30       1.0  T
   4   -120.1796923 -0.104020E-02  0.269E-02    0.21       1.0  T
   5   -120.1797634 -0.710845E-04  0.106E-02    0.18       1.1  T
   6   -120.1797673 -0.391349E-05  0.603E-03    0.18       2.0  T
   7   -120.1797703 -0.292527E-05  0.297E-03    0.17       4.0  T
   8   -120.1797710 -0.736368E-06  0.108E-03    0.18      11.0  T
   9   -120.1797709  0.592150E-07  0.906E-04    0.17      13.2  T
  10   -120.1797710 -0.106018E-06  0.208E-04    0.18      57.5  T
     SCC iter.                  ...        0 min,  0.054 sec
     gradient                   ...        0 min,  0.043 sec
 * total energy  :  -118.0940385 Eh     change       -0.3351469E-02 Eh
   gradient norm :     0.0075713 Eh/α   predicted    -0.3416091E-02 (   1.93%)
   displ. norm   :     0.7136182 α      lambda       -0.2749862E-02
   maximum displ.:     0.3695115 α      in ANC's #7, #8, #15, ...

........................................................................
.............................. CYCLE   14 ..............................
........................................................................

 iter      E             dE          RMSdq      gap      omega  full diag
   1   -120.1854017 -0.120185E+03  0.182E-01    0.18       0.0  T
   2   -120.1853977  0.404738E-05  0.106E-01    0.17       1.0  T
   3   -120.1847868  0.610885E-03  0.798E-02    0.26       1.0  T
   4   -120.1854334 -0.646632E-03  0.115E-02    0.18       1.0  T
   5   -120.1854407 -0.728059E-05  0.504E-03    0.18       2.4  T
   6   -120.1854413 -0.543210E-06  0.307E-03    0.18       3.9  T
   7   -120.1854411  0.205921E-06  0.248E-03    0.18       4.8  T
   8   -120.1854417 -0.639560E-06  0.644E-04    0.18      18.6  T
   9   -120.1854417 -0.252733E-07  0.339E-04    0.18      35.3  T
     SCC iter.                  ...        0 min,  0.051 sec
     gradient                   ...        0 min,  0.046 sec
 * total energy  :  -118.0960938 Eh     change       -0.2055352E-02 Eh
   gradient norm :     0.0174390 Eh/α   predicted    -0.2075126E-02 (   0.96%)
   displ. norm   :     0.6451411 α      lambda       -0.2048546E-02
   maximum displ.:     0.3624819 α      in ANC's #7, #8, #9, ...

........................................................................
.............................. CYCLE   15 ..............................
........................................................................

 iter      E             dE          RMSdq      gap      omega  full diag
   1   -120.2015372 -0.120202E+03  0.122E-01    0.17       0.0  T
   2   -120.2015407 -0.358946E-05  0.731E-02    0.18       1.0  T
   3   -120.2013447  0.196045E-03  0.520E-02    0.16       1.0  T
   4   -120.2015416 -0.196908E-03  0.133E-02    0.19       1.0  T
   5   -120.2015625 -0.208679E-04  0.452E-03    0.17       2.6  T
   6   -120.2015642 -0.173124E-05  0.265E-03    0.18       4.5  T
   7   -120.2015647 -0.481355E-06  0.945E-04    0.18      12.6  T
   8   -120.2015647 -0.226604E-07  0.627E-04    0.18      19.1  T
     SCC iter.                  ...        0 min,  0.049 sec
     gradient                   ...        0 min,  0.042 sec
 * total energy  :  -118.0974007 Eh     change       -0.1306871E-02 Eh
   gradient norm :     0.0248352 Eh/α   predicted    -0.1450586E-02 (  11.00%)
   displ. norm   :     0.5790389 α      lambda       -0.1705979E-02
   maximum displ.:     0.3357838 α      in ANC's #7, #8, #9, ...

........................................................................
.............................. CYCLE   16 ..............................
........................................................................

 iter      E             dE          RMSdq      gap      omega  full diag
   1   -120.1990229 -0.120199E+03  0.170E-01    0.18       0.0  T
   2   -120.1990389 -0.160283E-04  0.972E-02    0.18       1.0  T
   3   -120.1989769  0.620019E-04  0.307E-02    0.19       1.0  T
   4   -120.1990419 -0.650053E-04  0.816E-03    0.17       1.5  T
   5   -120.1990432 -0.130087E-05  0.663E-03    0.19       1.8  T
   6   -120.1990483 -0.504087E-05  0.268E-03    0.18       4.5  T
   7   -120.1990487 -0.438799E-06  0.124E-03    0.18       9.6  T
   8   -120.1990488 -0.726243E-07  0.448E-04    0.18      26.7  T
   9   -120.1990488 -0.113084E-07  0.183E-04    0.18      65.4  T
     SCC iter.                  ...        0 min,  0.049 sec
     gradient                   ...        0 min,  0.042 sec
 * total energy  :  -118.0986505 Eh     change       -0.1249771E-02 Eh
   gradient norm :     0.0101601 Eh/α   predicted    -0.1138991E-02 (  -8.86%)
   displ. norm   :     0.5810313 α      lambda       -0.1483123E-02
   maximum displ.:     0.3445348 α      in ANC's #7, #8, #9, ...

........................................................................
.............................. CYCLE   17 ..............................
........................................................................

 iter      E             dE          RMSdq      gap      omega  full diag
   1   -120.1996245 -0.120200E+03  0.135E-01    0.17       0.0  T
   2   -120.1995972  0.272339E-04  0.804E-02    0.20       1.0  T
   3   -120.1949185  0.467871E-02  0.170E-01    0.08       1.0  T
   4   -120.1995499 -0.463138E-02  0.290E-02    0.21       1.0  T
   5   -120.1996103 -0.603859E-04  0.159E-02    0.20       1.0  T
   6   -120.1996263 -0.160565E-04  0.112E-02    0.19       1.1  T
   7   -120.1996397 -0.133204E-04  0.573E-03    0.18       2.1  T
   8   -120.1996437 -0.405681E-05  0.205E-03    0.18       5.8  T
   9   -120.1996441 -0.427679E-06  0.578E-04    0.18      20.7  T
  10   -120.1996442 -0.313287E-07  0.208E-04    0.18      57.6  T
     SCC iter.                  ...        0 min,  0.056 sec
     gradient                   ...        0 min,  0.042 sec
 * total energy  :  -118.0998973 Eh     change       -0.1246799E-02 Eh
   gradient norm :     0.0135523 Eh/α   predicted    -0.9919158E-03 ( -20.44%)
   displ. norm   :     0.7048572 α      lambda       -0.1715292E-02
   maximum displ.:     0.4032697 α      in ANC's #7, #9, #8, ...

........................................................................
.............................. CYCLE   18 ..............................
........................................................................

 iter      E             dE          RMSdq      gap      omega  full diag
   1   -120.2007211 -0.120201E+03  0.159E-01    0.16       0.0  T
   2   -120.2006158  0.105294E-03  0.976E-02    0.21       1.0  T
   3   -120.1820768  0.185390E-01  0.335E-01    0.04       1.0  T
   4   -120.2004732 -0.183964E-01  0.538E-02    0.25       1.0  T
   5   -120.2005978 -0.124660E-03  0.363E-02    0.23       1.0  T
   6   -120.2006459 -0.480349E-04  0.304E-02    0.22       1.0  T
   7   -120.2007001 -0.541924E-04  0.230E-02    0.21       1.0  T
   8   -120.2007375 -0.374584E-04  0.163E-02    0.20       1.0  T
   9   -120.2007638 -0.262642E-04  0.846E-03    0.18       1.4  T
  10   -120.2007741 -0.103546E-04  0.741E-04    0.18      16.1  T
  11   -120.2007742 -0.356514E-07  0.240E-04    0.17      49.8  T
  12   -120.2007742  0.308786E-08  0.221E-04    0.17      54.2  T
     SCC iter.                  ...        0 min,  0.065 sec
     gradient                   ...        0 min,  0.042 sec
 * total energy  :  -118.1013500 Eh     change       -0.1452702E-02 Eh
   gradient norm :     0.0080482 Eh/α   predicted    -0.1283747E-02 ( -11.63%)
   displ. norm   :     0.7420924 α      lambda       -0.1410375E-02
   maximum displ.:     0.4096741 α      in ANC's #7, #9, #8, ...

........................................................................
.............................. CYCLE   19 ..............................
........................................................................

 iter      E             dE          RMSdq      gap      omega  full diag
   1   -120.1985735 -0.120199E+03  0.169E-01    0.16       0.0  T
   2   -120.1984905  0.830600E-04  0.102E-01    0.21       1.0  T
   3   -120.1783675  0.201230E-01  0.348E-01    0.04       1.0  T
   4   -120.1983642 -0.199967E-01  0.478E-02    0.23       1.0  T
   5   -120.1984697 -0.105541E-03  0.328E-02    0.22       1.0  T
   6   -120.1985112 -0.414641E-04  0.272E-02    0.21       1.0  T
   7   -120.1985583 -0.471422E-04  0.200E-02    0.20       1.0  T
   8   -120.1985886 -0.302549E-04  0.138E-02    0.19       1.0  T
   9   -120.1986070 -0.184342E-04  0.733E-03    0.18       1.6  T
  10   -120.1986148 -0.778231E-05  0.950E-04    0.17      12.6  T
  11   -120.1986149 -0.841081E-07  0.253E-04    0.17      47.3  T
  12   -120.1986149 -0.145521E-08  0.178E-04    0.17      67.2  T
     SCC iter.                  ...        0 min,  0.065 sec
     gradient                   ...        0 min,  0.042 sec
 * total energy  :  -118.1024625 Eh     change       -0.1112538E-02 Eh
   gradient norm :     0.0073010 Eh/α   predicted    -0.1093542E-02 (  -1.71%)
   displ. norm   :     0.6704091 α      lambda       -0.1010692E-02
   maximum displ.:     0.3608644 α      in ANC's #7, #9, #8, ...

........................................................................
.............................. CYCLE   20 ..............................
........................................................................

 iter      E             dE          RMSdq      gap      omega  full diag
   1   -120.1980675 -0.120198E+03  0.153E-01    0.16       0.0  T
   2   -120.1980307  0.367631E-04  0.910E-02    0.19       1.0  T
   3   -120.1896651  0.836562E-02  0.227E-01    0.07       1.0  T
   4   -120.1979457 -0.828061E-02  0.326E-02    0.21       1.0  T
   5   -120.1980343 -0.885981E-04  0.204E-02    0.20       1.0  T
   6   -120.1980590 -0.247245E-04  0.148E-02    0.19       1.0  T
   7   -120.1980828 -0.238265E-04  0.793E-03    0.18       1.5  T
   8   -120.1980886 -0.577053E-05  0.435E-03    0.18       2.7  T
   9   -120.1980909 -0.224791E-05  0.171E-03    0.17       7.0  T
  10   -120.1980912 -0.352423E-06  0.281E-04    0.17      42.5  T
  11   -120.1980912 -0.431719E-08  0.134E-04    0.17      89.3  T
     SCC iter.                  ...        0 min,  0.060 sec
     gradient                   ...        0 min,  0.042 sec
 * total energy  :  -118.1031421 Eh     change       -0.6795807E-03 Eh
   gradient norm :     0.0088005 Eh/α   predicted    -0.7324734E-03 (   7.78%)
   displ. norm   :     0.5905998 α      lambda       -0.7224033E-03
   maximum displ.:     0.3117537 α      in ANC's #7, #9, #8, ...
 * RMSD in coord.:     1.3726208 α      energy gain  -0.3341387E+00 Eh

generating ANC from exact Hessian ...
Using Lindh-Hessian (1995)
 Shifting diagonal of input Hessian by    9.9119993065248865E-003
 Lowest  eigenvalues of input Hessian
    0.000000    0.000000    0.000000    0.000000    0.000000    0.000000
    0.010000    0.010095    0.010176    0.010270    0.010446    0.010602
    0.011013    0.011707    0.011802    0.012120    0.012647    0.013297
 Highest eigenvalues
    2.121888    2.144936    2.168334    2.220177    2.306290    2.842947


........................................................................
.............................. CYCLE   21 ..............................
........................................................................

 iter      E             dE          RMSdq      gap      omega  full diag
   1   -120.1973191 -0.120197E+03  0.140E-01    0.17       0.0  T
   2   -120.1973114  0.774462E-05  0.826E-02    0.18       1.0  T
   3   -120.1956032  0.170814E-02  0.105E-01    0.11       1.0  T
   4   -120.1972717 -0.166847E-02  0.220E-02    0.19       1.0  T
   5   -120.1973245 -0.527509E-04  0.834E-03    0.18       1.4  T
   6   -120.1973290 -0.455688E-05  0.507E-03    0.18       2.4  T
   7   -120.1973323 -0.332242E-05  0.144E-03    0.17       8.3  T
   8   -120.1973324 -0.324856E-07  0.802E-04    0.17      14.9  T
   9   -120.1973324 -0.639182E-07  0.363E-04    0.17      32.9  T
     SCC iter.                  ...        0 min,  0.049 sec
     gradient                   ...        0 min,  0.042 sec
 * total energy  :  -118.1035371 Eh     change       -0.3949918E-03 Eh
   gradient norm :     0.0092970 Eh/α   predicted     0.0000000E+00 (-100.00%)
   displ. norm   :     0.1012034 α      lambda       -0.2880176E-03
   maximum displ.:     0.0388934 α      in ANC's #9, #12, #20, ...

........................................................................
.............................. CYCLE   22 ..............................
........................................................................

 iter      E             dE          RMSdq      gap      omega  full diag
   1   -120.2024142 -0.120202E+03  0.740E-02    0.18       0.0  T
   2   -120.2024152 -0.101006E-05  0.418E-02    0.17       1.0  T
   3   -120.2023295  0.856917E-04  0.276E-02    0.20       1.0  T
   4   -120.2024159 -0.864559E-04  0.645E-03    0.17       1.9  T
   5   -120.2024203 -0.430502E-05  0.214E-03    0.18       5.6  T
   6   -120.2024205 -0.238948E-06  0.148E-03    0.17       8.1  T
   7   -120.2024206 -0.125649E-06  0.605E-04    0.17      19.7  T
   8   -120.2024206 -0.204738E-07  0.186E-04    0.17      64.2  T
     SCC iter.                  ...        0 min,  0.045 sec
     gradient                   ...        0 min,  0.042 sec
 * total energy  :  -118.1037093 Eh     change       -0.1722324E-03 Eh
   gradient norm :     0.0039308 Eh/α   predicted    -0.1456304E-03 ( -15.45%)
   displ. norm   :     0.1585834 α      lambda       -0.2432144E-03
   maximum displ.:     0.0572312 α      in ANC's #9, #16, #3, ...

........................................................................
.............................. CYCLE   23 ..............................
........................................................................

 iter      E             dE          RMSdq      gap      omega  full diag
   1   -120.2088143 -0.120209E+03  0.571E-02    0.17       0.0  T
   2   -120.2088158 -0.148407E-05  0.326E-02    0.18       1.0  T
   3   -120.2087768  0.390459E-04  0.199E-02    0.16       1.0  T
   4   -120.2088135 -0.367006E-04  0.650E-03    0.18       1.8  T
   5   -120.2088189 -0.545569E-05  0.231E-03    0.17       5.2  T
   6   -120.2088193 -0.418389E-06  0.920E-04    0.17      13.0  T
   7   -120.2088194 -0.318765E-07  0.354E-04    0.17      33.8  T
     SCC iter.                  ...        0 min,  0.039 sec
     gradient                   ...        0 min,  0.042 sec
 * total energy  :  -118.1038166 Eh     change       -0.1073069E-03 Eh
   gradient norm :     0.0061591 Eh/α   predicted    -0.1247210E-03 (  16.23%)
   displ. norm   :     0.1219692 α      lambda       -0.1246748E-03
   maximum displ.:     0.0544301 α      in ANC's #9, #3, #2, ...

........................................................................
.............................. CYCLE   24 ..............................
........................................................................

 iter      E             dE          RMSdq      gap      omega  full diag
   1   -120.2080426 -0.120208E+03  0.433E-02    0.18       0.0  T
   2   -120.2080431 -0.523192E-06  0.246E-02    0.17       1.0  T
   3   -120.2080202  0.228931E-04  0.133E-02    0.19       1.0  T
   4   -120.2080432 -0.229927E-04  0.300E-03    0.17       4.0  T
   5   -120.2080442 -0.977876E-06  0.101E-03    0.17      11.9  T
   6   -120.2080442 -0.276546E-07  0.612E-04    0.17      19.5  T
   7   -120.2080442 -0.153551E-07  0.295E-04    0.17      40.6  T
     SCC iter.                  ...        0 min,  0.039 sec
     gradient                   ...        0 min,  0.042 sec
 * total energy  :  -118.1039219 Eh     change       -0.1052446E-03 Eh
   gradient norm :     0.0047342 Eh/α   predicted    -0.6327773E-04 ( -39.88%)
   displ. norm   :     0.3442640 α      lambda       -0.2642186E-03
   maximum displ.:     0.1583065 α      in ANC's #9, #3, #2, ...

........................................................................
.............................. CYCLE   25 ..............................
........................................................................

 iter      E             dE          RMSdq      gap      omega  full diag
   1   -120.2050837 -0.120205E+03  0.927E-02    0.18       0.0  T
   2   -120.2050876 -0.382308E-05  0.531E-02    0.17       1.0  T
   3   -120.2050764  0.111805E-04  0.122E-02    0.18       1.0  T
   4   -120.2050865 -0.101072E-04  0.531E-03    0.17       2.3  T
   5   -120.2050889 -0.242511E-05  0.278E-03    0.18       4.3  T
   6   -120.2050896 -0.690113E-06  0.129E-03    0.17       9.3  T
   7   -120.2050897 -0.114491E-06  0.528E-04    0.17      22.6  T
   8   -120.2050897 -0.144184E-07  0.171E-04    0.17      69.8  T
     SCC iter.                  ...        0 min,  0.044 sec
     gradient                   ...        0 min,  0.042 sec
 * total energy  :  -118.1041052 Eh     change       -0.1832987E-03 Eh
   gradient norm :     0.0044100 Eh/α   predicted    -0.1477718E-03 ( -19.38%)
   displ. norm   :     0.2966660 α      lambda       -0.1362386E-03
   maximum displ.:     0.1333292 α      in ANC's #9, #3, #2, ...

........................................................................
.............................. CYCLE   26 ..............................
........................................................................

 iter      E             dE          RMSdq      gap      omega  full diag
   1   -120.2044746 -0.120204E+03  0.636E-02    0.17       0.0  T
   2   -120.2044754 -0.730044E-06  0.368E-02    0.18       1.0  T
   3   -120.2044144  0.609426E-04  0.201E-02    0.16       1.0  T
   4   -120.2044731 -0.586864E-04  0.587E-03    0.18       2.0  T
   5   -120.2044772 -0.414038E-05  0.157E-03    0.17       7.6  T
   6   -120.2044773 -0.271776E-07  0.102E-03    0.17      11.7  T
   7   -120.2044773 -0.500580E-07  0.414E-04    0.17      28.9  T
   8   -120.2044773 -0.132064E-07  0.159E-04    0.17      75.4  T
     SCC iter.                  ...        0 min,  0.044 sec
     gradient                   ...        0 min,  0.042 sec
 * total energy  :  -118.1042149 Eh     change       -0.1096765E-03 Eh
   gradient norm :     0.0039946 Eh/α   predicted    -0.7412000E-04 ( -32.42%)
   displ. norm   :     0.3564672 α      lambda       -0.1679886E-03
   maximum displ.:     0.1590977 α      in ANC's #3, #9, #2, ...

........................................................................
.............................. CYCLE   27 ..............................
........................................................................

 iter      E             dE          RMSdq      gap      omega  full diag
   1   -120.2049020 -0.120205E+03  0.679E-02    0.17       0.0  T
   2   -120.2048986  0.334213E-05  0.396E-02    0.18       1.0  T
   3   -120.2044770  0.421589E-03  0.517E-02    0.13       1.0  T
   4   -120.2048994 -0.422364E-03  0.752E-03    0.18       1.6  T
   5   -120.2049050 -0.558681E-05  0.292E-03    0.17       4.1  T
   6   -120.2049058 -0.766366E-06  0.141E-03    0.17       8.5  T
   7   -120.2049058 -0.478171E-07  0.703E-04    0.17      17.0  T
   8   -120.2049059 -0.553856E-07  0.318E-04    0.17      37.5  T
     SCC iter.                  ...        0 min,  0.044 sec
     gradient                   ...        0 min,  0.042 sec
 * total energy  :  -118.1043565 Eh     change       -0.1415966E-03 Eh
   gradient norm :     0.0032879 Eh/α   predicted    -0.9466766E-04 ( -33.14%)
   displ. norm   :     0.4417307 α      lambda       -0.2099874E-03
   maximum displ.:     0.2051399 α      in ANC's #3, #2, #9, ...

........................................................................
.............................. CYCLE   28 ..............................
........................................................................

 iter      E             dE          RMSdq      gap      omega  full diag
   1   -120.2056268 -0.120206E+03  0.776E-02    0.17       0.0  T
   2   -120.2056171  0.970798E-05  0.456E-02    0.18       1.0  T
   3   -120.2044717  0.114542E-02  0.850E-02    0.11       1.0  T
   4   -120.2056172 -0.114551E-02  0.116E-02    0.18       1.0  T
   5   -120.2056293 -0.120870E-04  0.566E-03    0.18       2.1  T
   6   -120.2056326 -0.336526E-05  0.249E-03    0.17       4.8  T
   7   -120.2056332 -0.599384E-06  0.719E-04    0.17      16.6  T
   8   -120.2056333 -0.404002E-07  0.378E-04    0.17      31.6  T
     SCC iter.                  ...        0 min,  0.045 sec
     gradient                   ...        0 min,  0.042 sec
 * total energy  :  -118.1045271 Eh     change       -0.1706121E-03 Eh
   gradient norm :     0.0031422 Eh/α   predicted    -0.1254808E-03 ( -26.45%)
   displ. norm   :     0.4435941 α      lambda       -0.1758943E-03
   maximum displ.:     0.2138549 α      in ANC's #3, #2, #1, ...

........................................................................
.............................. CYCLE   29 ..............................
........................................................................

 iter      E             dE          RMSdq      gap      omega  full diag
   1   -120.2060068 -0.120206E+03  0.728E-02    0.17       0.0  T
   2   -120.2059994  0.744043E-05  0.427E-02    0.18       1.0  T
   3   -120.2051052  0.894155E-03  0.757E-02    0.12       1.0  T
   4   -120.2059999 -0.894687E-03  0.104E-02    0.18       1.1  T
   5   -120.2060103 -0.104215E-04  0.466E-03    0.17       2.6  T
   6   -120.2060125 -0.216039E-05  0.185E-03    0.17       6.5  T
   7   -120.2060127 -0.187740E-06  0.745E-04    0.17      16.0  T
   8   -120.2060127 -0.364224E-07  0.429E-04    0.17      27.9  T
     SCC iter.                  ...        0 min,  0.044 sec
     gradient                   ...        0 min,  0.042 sec
 * total energy  :  -118.1046644 Eh     change       -0.1373362E-03 Eh
   gradient norm :     0.0025818 Eh/α   predicted    -0.1052563E-03 ( -23.36%)
   displ. norm   :     0.3738448 α      lambda       -0.1164699E-03
   maximum displ.:     0.1869307 α      in ANC's #3, #2, #1, ...

........................................................................
.............................. CYCLE   30 ..............................
........................................................................

 iter      E             dE          RMSdq      gap      omega  full diag
   1   -120.2061962 -0.120206E+03  0.579E-02    0.17       0.0  T
   2   -120.2061950  0.116192E-05  0.335E-02    0.17       1.0  T
   3   -120.2059641  0.230959E-03  0.393E-02    0.14       1.0  T
   4   -120.2061965 -0.232472E-03  0.516E-03    0.17       2.3  T
   5   -120.2061992 -0.261670E-05  0.238E-03    0.17       5.0  T
   6   -120.2061994 -0.209141E-06  0.118E-03    0.17      10.1  T
   7   -120.2061994 -0.550815E-07  0.410E-04    0.17      29.2  T
   8   -120.2061994 -0.986162E-08  0.220E-04    0.17      54.4  T
     SCC iter.                  ...        0 min,  0.044 sec
     gradient                   ...        0 min,  0.042 sec
 * total energy  :  -118.1047578 Eh     change       -0.9342474E-04 Eh
   gradient norm :     0.0020526 Eh/α   predicted    -0.6637419E-04 ( -28.95%)
   displ. norm   :     0.3222542 α      lambda       -0.9586904E-04
   maximum displ.:     0.1663426 α      in ANC's #3, #2, #1, ...

........................................................................
.............................. CYCLE   31 ..............................
........................................................................

 iter      E             dE          RMSdq      gap      omega  full diag
   1   -120.2065986 -0.120207E+03  0.479E-02    0.17       0.0  T
   2   -120.2065998 -0.123781E-05  0.274E-02    0.17       1.0  T
   3   -120.2065938  0.606644E-05  0.746E-03    0.16       1.6  T
   4   -120.2065989 -0.511087E-05  0.356E-03    0.17       3.4  T
   5   -120.2066002 -0.136298E-05  0.163E-03    0.17       7.3  T
   6   -120.2066004 -0.214267E-06  0.593E-04    0.17      20.2  T
   7   -120.2066005 -0.324128E-07  0.229E-04    0.17      52.2  T
     SCC iter.                  ...        0 min,  0.039 sec
     gradient                   ...        0 min,  0.042 sec
 * total energy  :  -118.1048389 Eh     change       -0.8110244E-04 Eh
   gradient norm :     0.0019767 Eh/α   predicted    -0.5291302E-04 ( -34.76%)
   displ. norm   :     0.5359470 α      lambda       -0.1102457E-03
   maximum displ.:     0.2801601 α      in ANC's #3, #2, #1, ...

........................................................................
.............................. CYCLE   32 ..............................
........................................................................

 iter      E             dE          RMSdq      gap      omega  full diag
   1   -120.2062960 -0.120206E+03  0.823E-02    0.17       0.0  T
   2   -120.2062971 -0.107082E-05  0.474E-02    0.17       1.0  T
   3   -120.2062015  0.956020E-04  0.274E-02    0.20       1.0  T
   4   -120.2063000 -0.984526E-04  0.470E-03    0.17       2.5  T
   5   -120.2063013 -0.134310E-05  0.259E-03    0.17       4.6  T
   6   -120.2063015 -0.162942E-06  0.164E-03    0.17       7.3  T
   7   -120.2063017 -0.203346E-06  0.532E-04    0.17      22.5  T
   8   -120.2063017 -0.132433E-07  0.208E-04    0.17      57.5  T
     SCC iter.                  ...        0 min,  0.044 sec
     gradient                   ...        0 min,  0.042 sec
 * total energy  :  -118.1049681 Eh     change       -0.1291899E-03 Eh
   gradient norm :     0.0031119 Eh/α   predicted    -0.6216171E-04 ( -51.88%)
   displ. norm   :     0.3272087 α      lambda       -0.9428881E-04
   maximum displ.:     0.1727272 α      in ANC's #3, #2, #1, ...

........................................................................
.............................. CYCLE   33 ..............................
........................................................................

 iter      E             dE          RMSdq      gap      omega  full diag
   1   -120.2063128 -0.120206E+03  0.503E-02    0.17       0.0  T
   2   -120.2063116  0.116144E-05  0.294E-02    0.17       1.0  T
   3   -120.2062310  0.805445E-04  0.262E-02    0.20       1.0  T
   4   -120.2063141 -0.830594E-04  0.343E-03    0.17       3.5  T
   5   -120.2063148 -0.661213E-06  0.185E-03    0.17       6.5  T
   6   -120.2063149 -0.102443E-06  0.126E-03    0.17       9.5  T
   7   -120.2063150 -0.145946E-06  0.342E-04    0.17      34.9  T
   8   -120.2063150 -0.679410E-08  0.128E-04    0.17      93.0  T
     SCC iter.                  ...        0 min,  0.044 sec
     gradient                   ...        0 min,  0.042 sec
 * total energy  :  -118.1050510 Eh     change       -0.8284812E-04 Eh
   gradient norm :     0.0026626 Eh/α   predicted    -0.5219494E-04 ( -37.00%)
   displ. norm   :     0.4568398 α      lambda       -0.1332033E-03
   maximum displ.:     0.2424764 α      in ANC's #2, #3, #1, ...

........................................................................
.............................. CYCLE   34 ..............................
........................................................................

 iter      E             dE          RMSdq      gap      omega  full diag
   1   -120.2056508 -0.120206E+03  0.775E-02    0.18       0.0  T
   2   -120.2056478  0.306637E-05  0.453E-02    0.17       1.0  T
   3   -120.2054684  0.179401E-03  0.403E-02    0.21       1.0  T
   4   -120.2056557 -0.187299E-03  0.406E-03    0.17       2.9  T
   5   -120.2056562 -0.539619E-06  0.230E-03    0.17       5.2  T
   6   -120.2056560  0.189204E-06  0.212E-03    0.17       5.6  T
   7   -120.2056565 -0.479377E-06  0.549E-04    0.17      21.8  T
   8   -120.2056565 -0.122849E-07  0.249E-04    0.17      48.0  T
     SCC iter.                  ...        0 min,  0.042 sec
     gradient                   ...        0 min,  0.042 sec
 * total energy  :  -118.1051595 Eh     change       -0.1085068E-03 Eh
   gradient norm :     0.0030174 Eh/α   predicted    -0.8050334E-04 ( -25.81%)
   displ. norm   :     0.4732184 α      lambda       -0.1252840E-03
   maximum displ.:     0.2509342 α      in ANC's #2, #3, #1, ...

........................................................................
.............................. CYCLE   35 ..............................
........................................................................

 iter      E             dE          RMSdq      gap      omega  full diag
   1   -120.2071195 -0.120207E+03  0.793E-02    0.18       0.0  T
   2   -120.2071192  0.315578E-06  0.464E-02    0.17       1.0  T
   3   -120.2070114  0.107742E-03  0.343E-02    0.20       1.0  T
   4   -120.2071212 -0.109791E-03  0.575E-03    0.17       2.1  T
   5   -120.2071234 -0.219796E-05  0.330E-03    0.18       3.6  T
   6   -120.2071241 -0.683577E-06  0.208E-03    0.17       5.8  T
   7   -120.2071245 -0.417340E-06  0.457E-04    0.17      26.2  T
   8   -120.2071245 -0.141871E-07  0.184E-04    0.17      64.9  T
     SCC iter.                  ...        0 min,  0.042 sec
     gradient                   ...        0 min,  0.043 sec
 * total energy  :  -118.1052529 Eh     change       -0.9346659E-04 Eh
   gradient norm :     0.0040727 Eh/α   predicted    -0.7667165E-04 ( -17.97%)
   displ. norm   :     0.4737247 α      lambda       -0.1023082E-03
   maximum displ.:     0.2609304 α      in ANC's #2, #3, #1, ...

........................................................................
.............................. CYCLE   36 ..............................
........................................................................

 iter      E             dE          RMSdq      gap      omega  full diag
   1   -120.2059397 -0.120206E+03  0.841E-02    0.18       0.0  T
   2   -120.2059412 -0.143230E-05  0.488E-02    0.17       1.0  T
   3   -120.2058648  0.763862E-04  0.284E-02    0.19       1.0  T
   4   -120.2059427 -0.779222E-04  0.509E-03    0.17       2.3  T
   5   -120.2059438 -0.111863E-05  0.360E-03    0.18       3.3  T
   6   -120.2059447 -0.891090E-06  0.196E-03    0.17       6.1  T
   7   -120.2059451 -0.370135E-06  0.326E-04    0.17      36.6  T
   8   -120.2059451 -0.362579E-08  0.174E-04    0.17      68.7  T
     SCC iter.                  ...        0 min,  0.042 sec
     gradient                   ...        0 min,  0.042 sec
 * total energy  :  -118.1053277 Eh     change       -0.7473234E-04 Eh
   gradient norm :     0.0027865 Eh/α   predicted    -0.6263462E-04 ( -16.19%)
   displ. norm   :     0.3549813 α      lambda       -0.8132825E-04
   maximum displ.:     0.1955485 α      in ANC's #2, #3, #1, ...

........................................................................
.............................. CYCLE   37 ..............................
........................................................................

 iter      E             dE          RMSdq      gap      omega  full diag
   1   -120.2077722 -0.120208E+03  0.641E-02    0.17       0.0  T
   2   -120.2077727 -0.431937E-06  0.374E-02    0.18       1.0  T
   3   -120.2076871  0.855757E-04  0.251E-02    0.15       1.0  T
   4   -120.2077709 -0.838309E-04  0.572E-03    0.18       2.1  T
   5   -120.2077746 -0.373663E-05  0.242E-03    0.17       4.9  T
   6   -120.2077748 -0.201078E-06  0.126E-03    0.17       9.5  T
   7   -120.2077749 -0.735382E-07  0.325E-04    0.17      36.7  T
   8   -120.2077749 -0.110351E-07  0.131E-04    0.17      91.4  T
     SCC iter.                  ...        0 min,  0.041 sec
     gradient                   ...        0 min,  0.042 sec
 * total energy  :  -118.1053919 Eh     change       -0.6426165E-04 Eh
   gradient norm :     0.0024120 Eh/α   predicted    -0.4578949E-04 ( -28.75%)
   displ. norm   :     0.3822502 α      lambda       -0.8397279E-04
   maximum displ.:     0.2186241 α      in ANC's #2, #3, #1, ...

........................................................................
.............................. CYCLE   38 ..............................
........................................................................

 iter      E             dE          RMSdq      gap      omega  full diag
   1   -120.2083499 -0.120208E+03  0.688E-02    0.17       0.0  T
   2   -120.2083469  0.303920E-05  0.404E-02    0.18       1.0  T
   3   -120.2079061  0.440725E-03  0.535E-02    0.13       1.0  T
   4   -120.2083491 -0.443006E-03  0.609E-03    0.18       2.0  T
   5   -120.2083535 -0.432005E-05  0.240E-03    0.17       5.0  T
   6   -120.2083538 -0.335073E-06  0.102E-03    0.17      11.7  T
   7   -120.2083539 -0.629426E-07  0.485E-04    0.17      24.6  T
   8   -120.2083539 -0.223243E-07  0.216E-04    0.17      55.4  T
     SCC iter.                  ...        0 min,  0.041 sec
     gradient                   ...        0 min,  0.042 sec
 * total energy  :  -118.1054554 Eh     change       -0.6349313E-04 Eh
   gradient norm :     0.0019071 Eh/α   predicted    -0.4812212E-04 ( -24.21%)
   displ. norm   :     0.4240205 α      lambda       -0.5372860E-04
   maximum displ.:     0.2455176 α      in ANC's #2, #3, #1, ...

........................................................................
.............................. CYCLE   39 ..............................
........................................................................

 iter      E             dE          RMSdq      gap      omega  full diag
   1   -120.2086526 -0.120209E+03  0.772E-02    0.17       0.0  T
   2   -120.2086422  0.104054E-04  0.459E-02    0.18       1.0  T
   3   -120.2074071  0.123511E-02  0.887E-02    0.11       1.0  T
   4   -120.2086423 -0.123519E-02  0.116E-02    0.18       1.0  T
   5   -120.2086543 -0.119473E-04  0.636E-03    0.18       1.9  T
   6   -120.2086590 -0.472665E-05  0.177E-03    0.17       6.7  T
   7   -120.2086592 -0.207697E-06  0.576E-04    0.17      20.7  T
   8   -120.2086592 -0.841787E-08  0.356E-04    0.17      33.6  T
     SCC iter.                  ...        0 min,  0.041 sec
     gradient                   ...        0 min,  0.042 sec
 * total energy  :  -118.1055073 Eh     change       -0.5184147E-04 Eh
   gradient norm :     0.0018697 Eh/α   predicted    -0.2901542E-04 ( -44.03%)
   displ. norm   :     0.2096728 α      lambda       -0.2467254E-04
   maximum displ.:     0.1258526 α      in ANC's #2, #3, #1, ...

........................................................................
.............................. CYCLE   40 ..............................
........................................................................

 iter      E             dE          RMSdq      gap      omega  full diag
   1   -120.2079301 -0.120208E+03  0.360E-02    0.17       0.0  T
   2   -120.2079304 -0.269284E-06  0.209E-02    0.17       1.0  T
   3   -120.2079068  0.236029E-04  0.133E-02    0.16       1.0  T
   4   -120.2079300 -0.232557E-04  0.300E-03    0.17       4.0  T
   5   -120.2079310 -0.970503E-06  0.119E-03    0.17      10.1  T
   6   -120.2079311 -0.652606E-07  0.539E-04    0.17      22.2  T
   7   -120.2079311 -0.176541E-07  0.201E-04    0.17      59.5  T
     SCC iter.                  ...        0 min,  0.036 sec
     gradient                   ...        0 min,  0.042 sec
 * total energy  :  -118.1055382 Eh     change       -0.3094297E-04 Eh
   gradient norm :     0.0013945 Eh/α   predicted    -0.1258101E-04 ( -59.34%)
   displ. norm   :     0.2872061 α      lambda       -0.4297568E-04
   maximum displ.:     0.1641276 α      in ANC's #2, #1, #3, ...

   *** GEOMETRY OPTIMIZATION CONVERGED AFTER 40 ITERATIONS ***

------------------------------------------------------------------------
 total energy gain   :        -0.3365348 Eh     -211.1788 kcal/mol
 total RMSD          :         1.6815386 a0        0.8898 Å
 total power (kW/mol):       -22.0893009 (step) -201.7596 (real)
------------------------------------------------------------------------

 ANCopt (total)                0 d,  0 h,  0 min,  4.379 sec
 optimizer setup                ...        0 min,  0.000 sec (  0.003%)
 model hessian                  ...        0 min,  0.017 sec (  0.397%)
 ANC generation                 ...        0 min,  0.006 sec (  0.126%)
 coordinate transformation      ...        0 min,  0.003 sec (  0.079%)
 single point calculation       ...        0 min,  4.331 sec ( 98.894%)
 optimization log               ...        0 min,  0.012 sec (  0.272%)
 hessian update                 ...        0 min,  0.002 sec (  0.053%)
 rational function              ...        0 min,  0.005 sec (  0.123%)

================
 final structure:
================
 xtb: 6.7.1 (edcfbbe)
          08202606263D

 70 79  0     0  0            999 V2000
   11.7008    1.2264   -0.5643 H   0  0  0  0  0  0  0  0  0  0  0  0
   -5.2159    0.0475    1.3120 C   0  0  0  0  0  0  0  0  0  0  0  0
    8.0271   -3.2607   -0.5856 H   0  0  0  0  0  0  0  0  0  0  0  0
   -6.2525   -0.9337    5.1707 H   0  0  0  0  0  0  0  0  0  0  0  0
   -2.4049   -0.5339   -0.8220 C   0  0  0  0  0  0  0  0  0  0  0  0
   -6.3028    0.9203    1.1712 N   0  0  0  0  0  0  0  0  0  0  0  0
  -10.6564    2.9105    3.2891 C   0  0  0  0  0  0  0  0  0  0  0  0
   -5.6339   -0.2497   -1.3828 H   0  0  0  0  0  0  0  0  0  0  0  0
   -4.6191   -0.2997   -1.0402 C   0  0  0  0  0  0  0  0  0  0  0  0
   -6.7806   -0.2565    4.5250 C   0  0  0  0  0  0  0  0  0  0  0  0
   -6.4530    1.7080    0.1217 C   0  0  0  0  0  0  0  0  0  0  0  0
   10.5841   -1.1105   -0.4171 N   0  0  0  0  0  0  0  0  0  0  0  0
  -10.4461    1.9865    5.2128 H   0  0  0  0  0  0  0  0  0  0  0  0
  -10.0251    2.1130    4.2268 C   0  0  0  0  0  0  0  0  0  0  0  0
   -3.4776   -0.5455   -1.7456 C   0  0  0  0  0  0  0  0  0  0  0  0
   -6.3772    0.0201    3.2449 C   0  0  0  0  0  0  0  0  0  0  0  0
   -8.1753    0.4743    5.2289 S   0  0  0  0  0  0  0  0  0  0  0  0
    4.1392   -3.0959   -2.9631 H   0  0  0  0  0  0  0  0  0  0  0  0
    9.9275    0.0260   -0.7224 C   0  0  0  0  0  0  0  0  0  0  0  0
   -0.9973   -0.7054   -0.9363 C   0  0  0  0  0  0  0  0  0  0  0  0
   -4.5598   -1.2395    2.9333 H   0  0  0  0  0  0  0  0  0  0  0  0
    8.5233   -2.3039   -0.6493 C   0  0  0  0  0  0  0  0  0  0  0  0
    5.8581   -2.2491   -2.0290 C   0  0  0  0  0  0  0  0  0  0  0  0
    9.9728    2.3908   -1.0970 C   0  0  0  0  0  0  0  0  0  0  0  0
    1.9050   -1.5683   -3.6766 C   0  0  0  0  0  0  0  0  0  0  0  0
    6.5204   -3.0168   -2.4022 H   0  0  0  0  0  0  0  0  0  0  0  0
   -4.3124   -0.1384    0.2904 N   0  0  0  0  0  0  0  0  0  0  0  0
   -6.5302    2.3749   -0.8096 N   0  0  0  0  0  0  0  0  0  0  0  0
   -2.1586   -0.1385    1.6082 C   0  0  0  0  0  0  0  0  0  0  0  0
    1.9701   -0.7783    0.6346 H   0  0  0  0  0  0  0  0  0  0  0  0
    2.2453   -1.2945   -2.2946 C   0  0  0  0  0  0  0  0  0  0  0  0
   -2.9454   -0.2816    0.4400 C   0  0  0  0  0  0  0  0  0  0  0  0
    8.5324    0.0624   -1.0004 C   0  0  0  0  0  0  0  0  0  0  0  0
    7.8086   -1.1644   -0.9556 C   0  0  0  0  0  0  0  0  0  0  0  0
   -8.8419    1.4589    3.9203 C   0  0  0  0  0  0  0  0  0  0  0  0
    3.5021    0.5119   -0.7635 H   0  0  0  0  0  0  0  0  0  0  0  0
   -0.8638   -0.3425   -3.8904 H   0  0  0  0  0  0  0  0  0  0  0  0
   -8.9169    2.4067    1.7128 C   0  0  0  0  0  0  0  0  0  0  0  0
    8.0382    3.2010   -1.6395 H   0  0  0  0  0  0  0  0  0  0  0  0
    1.1369   -0.7790   -0.0413 C   0  0  0  0  0  0  0  0  0  0  0  0
    5.8876    0.5767   -0.1808 H   0  0  0  0  0  0  0  0  0  0  0  0
   -5.2427   -0.5095    2.5500 C   0  0  0  0  0  0  0  0  0  0  0  0
   -2.6298    0.1078    2.5480 H   0  0  0  0  0  0  0  0  0  0  0  0
   10.4790    3.3424   -1.1506 H   0  0  0  0  0  0  0  0  0  0  0  0
    9.8984   -2.2197   -0.3878 C   0  0  0  0  0  0  0  0  0  0  0  0
   -0.1884   -0.5832    0.2820 C   0  0  0  0  0  0  0  0  0  0  0  0
  -10.0938    3.0502    2.0289 C   0  0  0  0  0  0  0  0  0  0  0  0
   -0.8083   -0.2909    1.5241 C   0  0  0  0  0  0  0  0  0  0  0  0
   -8.2471    1.5928    2.6442 C   0  0  0  0  0  0  0  0  0  0  0  0
    0.7453   -1.5411   -4.2001 N   0  0  0  0  0  0  0  0  0  0  0  0
   -0.4033   -1.2221   -3.4164 C   0  0  0  0  0  0  0  0  0  0  0  0
    3.6501   -1.2919   -1.9061 C   0  0  0  0  0  0  0  0  0  0  0  0
    1.2062   -1.0222   -1.4401 C   0  0  0  0  0  0  0  0  0  0  0  0
   -7.0386    0.9064    2.3593 C   0  0  0  0  0  0  0  0  0  0  0  0
    4.5212   -2.2831   -2.3622 C   0  0  0  0  0  0  0  0  0  0  0  0
  -11.5773    3.4128    3.5399 H   0  0  0  0  0  0  0  0  0  0  0  0
   -0.1621   -0.9830   -1.9762 C   0  0  0  0  0  0  0  0  0  0  0  0
   10.4602   -3.1118   -0.1395 H   0  0  0  0  0  0  0  0  0  0  0  0
    2.7204   -1.7969   -4.3545 H   0  0  0  0  0  0  0  0  0  0  0  0
   -0.1901   -0.1810    2.4029 H   0  0  0  0  0  0  0  0  0  0  0  0
   -3.4164   -0.7161   -2.8014 H   0  0  0  0  0  0  0  0  0  0  0  0
    7.9045    1.2083   -1.3275 N   0  0  0  0  0  0  0  0  0  0  0  0
    4.1630   -0.2701   -1.1050 C   0  0  0  0  0  0  0  0  0  0  0  0
    8.5952    2.3119   -1.3705 C   0  0  0  0  0  0  0  0  0  0  0  0
   -8.5007    2.5281    0.7268 H   0  0  0  0  0  0  0  0  0  0  0  0
   -1.1223   -2.0394   -3.5692 H   0  0  0  0  0  0  0  0  0  0  0  0
   10.6423    1.2425   -0.7755 C   0  0  0  0  0  0  0  0  0  0  0  0
  -10.5765    3.6654    1.2853 H   0  0  0  0  0  0  0  0  0  0  0  0
    5.5043   -0.2255   -0.7894 C   0  0  0  0  0  0  0  0  0  0  0  0
    6.3749   -1.2111   -1.2526 C   0  0  0  0  0  0  0  0  0  0  0  0
  1 67  1  0  0  0  0
  2  6  4  0  0  0  0
  2 27  1  0  0  0  0
  2 42  4  0  0  0  0
  3 22  1  0  0  0  0
  4 10  1  0  0  0  0
  5 15  4  0  0  0  0
  5 20  4  0  0  0  0
  5 32  4  0  0  0  0
  6 11  1  0  0  0  0
  6 54  4  0  0  0  0
  7 14  4  0  0  0  0
  7 47  4  0  0  0  0
  7 56  1  0  0  0  0
  8  9  1  0  0  0  0
  9 15  4  0  0  0  0
  9 27  4  0  0  0  0
 10 16  1  0  0  0  0
 10 17  1  0  0  0  0
 11 28  3  0  0  0  0
 12 19  4  0  0  0  0
 12 45  4  0  0  0  0
 13 14  1  0  0  0  0
 14 35  4  0  0  0  0
 15 61  1  0  0  0  0
 16 42  4  0  0  0  0
 16 54  4  0  0  0  0
 17 35  1  0  0  0  0
 18 55  1  0  0  0  0
 19 33  4  0  0  0  0
 19 67  4  0  0  0  0
 20 46  4  0  0  0  0
 20 57  2  0  0  0  0
 21 42  1  0  0  0  0
 22 34  4  0  0  0  0
 22 45  4  0  0  0  0
 23 26  1  0  0  0  0
 23 55  4  0  0  0  0
 23 70  4  0  0  0  0
 24 44  1  0  0  0  0
 24 64  4  0  0  0  0
 24 67  4  0  0  0  0
 25 31  1  0  0  0  0
 25 50  2  0  0  0  0
 25 59  1  0  0  0  0
 27 32  4  0  0  0  0
 29 32  4  0  0  0  0
 29 43  1  0  0  0  0
 29 48  4  0  0  0  0
 30 40  1  0  0  0  0
 31 52  1  0  0  0  0
 31 53  2  0  0  0  0
 33 34  4  0  0  0  0
 33 62  4  0  0  0  0
 34 70  1  0  0  0  0
 35 49  4  0  0  0  0
 36 63  1  0  0  0  0
 37 51  1  0  0  0  0
 38 47  4  0  0  0  0
 38 49  4  0  0  0  0
 38 65  1  0  0  0  0
 39 64  1  0  0  0  0
 40 46  2  0  0  0  0
 40 53  1  0  0  0  0
 41 69  1  0  0  0  0
 45 58  1  0  0  0  0
 46 48  4  0  0  0  0
 47 68  1  0  0  0  0
 48 60  1  0  0  0  0
 49 54  1  0  0  0  0
 50 51  1  0  0  0  0
 51 57  1  0  0  0  0
 51 66  1  0  0  0  0
 52 55  4  0  0  0  0
 52 63  4  0  0  0  0
 53 57  1  0  0  0  0
 62 64  4  0  0  0  0
 63 69  4  0  0  0  0
 69 70  4  0  0  0  0
M  END
$$$$

 Bond Distances (Angstroems)
 ---------------------------
H1-C67=1.0794        C2-N6=1.4011         C2-N27=1.3765        C2-C42=1.3578        H3-C22=1.0796        H4-C10=1.0744        
C5-C15=1.4155        C5-C20=1.4227        C5-C32=1.3959        N6-C2=1.4011         N6-C11=1.3208        N6-C54=1.3975        
C7-C14=1.3834        C7-C47=1.3871        C7-H56=1.0786        H8-C9=1.0723         C9-H8=1.0723         C9-C15=1.3641        
C9-N27=1.3750        C10-H4=1.0744        C10-C16=1.3704       C10-S17=1.7247       C11-N6=1.3208        C11-N28=1.1481       
N12-C19=1.3475       N12-C45=1.3044       H13-C14=1.0796       C14-C7=1.3834        C14-H13=1.0796       C14-C35=1.3862       
C15-C5=1.4155        C15-C9=1.3641        C15-H61=1.0712       C16-C10=1.3704       C16-C42=1.4320       C16-C54=1.4168       
S17-C10=1.7247       S17-C35=1.7682       H18-C55=1.0806       C19-N12=1.3475       C19-C33=1.4231       C19-C67=1.4120       
C20-C5=1.4227        C20-C46=1.4674       C20-C57=1.3624       H21-C42=1.0705       C22-H3=1.0796        C22-C34=1.3796       
C22-C45=1.4023       C23-H26=1.0804       C23-C55=1.3783       C23-C70=1.3954       C24-H44=1.0792       C24-C64=1.4068       
C24-C67=1.3676       C25-C31=1.4494       C25-N50=1.2726       C25-H59=1.0847       H26-C23=1.0804       N27-C2=1.3765        
N27-C9=1.3750        N27-C32=1.3826       N28-C11=1.1481       C29-C32=1.4157       C29-H43=1.0798       C29-C48=1.3616       
H30-C40=1.0729       C31-C25=1.4494       C31-C52=1.4575       C31-C53=1.3726       C32-C5=1.3959        C32-N27=1.3826       
C32-C29=1.4157       C33-C19=1.4231       C33-C34=1.4251       C33-N62=1.3469       C34-C22=1.3796       C34-C33=1.4251       
C34-C70=1.4649       C35-C14=1.3862       C35-S17=1.7682       C35-C49=1.4143       H36-C63=1.0792       H37-C51=1.1002       
C38-C47=1.3781       C38-C49=1.4066       C38-H65=1.0771       H39-C64=1.0831       C40-H30=1.0729       C40-C46=1.3781       
C40-C53=1.4215       H41-C69=1.0774       C42-C2=1.3578        C42-C16=1.4320       C42-H21=1.0705       H43-C29=1.0798       
H44-C24=1.0792       C45-N12=1.3044       C45-C22=1.4023       C45-H58=1.0831       C46-C20=1.4674       C46-C40=1.3781       
C46-C48=1.4186       C47-C7=1.3871        C47-C38=1.3781       C47-H68=1.0792       C48-C29=1.3616       C48-C46=1.4186       
C48-H60=1.0800       C49-C35=1.4143       C49-C38=1.4066       C49-C54=1.4188       N50-C25=1.2726       N50-C51=1.4267       
C51-H37=1.1002       C51-N50=1.4267       C51-C57=1.4796       C51-H66=1.0992       C52-C31=1.4575       C52-C55=1.3961       
C52-C63=1.3960       C53-C31=1.3726       C53-C40=1.4215       C53-C57=1.4701       C54-N6=1.3975        C54-C16=1.4168       
C54-C49=1.4188       C55-H18=1.0806       C55-C23=1.3783       C55-C52=1.3961       H56-C7=1.0786        C57-C20=1.3624       
C57-C51=1.4796       C57-C53=1.4701       H58-C45=1.0831       H59-C25=1.0847       H60-C48=1.0800       H61-C15=1.0712       
N62-C33=1.3469       N62-C64=1.3026       C63-H36=1.0792       C63-C52=1.3960       C63-C69=1.3786       C64-C24=1.4068       
C64-H39=1.0831       C64-N62=1.3026       H65-C38=1.0771       H66-C51=1.0992       C67-H1=1.0794        C67-C19=1.4120       
C67-C24=1.3676       H68-C47=1.0792       C69-H41=1.0774       C69-C63=1.3786       C69-C70=1.3942       C70-C23=1.3954       
C70-C34=1.4649       C70-C69=1.3942       
 C  H  Rav=1.0801 sigma=0.0071  Rmin=1.0705  Rmax=1.1002    23
 C  C  Rav=1.4055 sigma=0.0317  Rmin=1.3578  Rmax=1.4796    41
 N  C  Rav=1.3386 sigma=0.0698  Rmin=1.1481  Rmax=1.4267    13
 S  C  Rav=1.7464 sigma=0.0217  Rmin=1.7247  Rmax=1.7682     2

 selected bond angles (degree)
 --------------------
N27-C2-N6=121.25               C42-C2-N6=109.39               C42-C2-N27=129.36              C20-C5-C15=134.14              
C32-C5-C15=107.34              C32-C5-C20=118.52              C11-N6-C2=122.66               C54-N6-C2=108.47               
C54-N6-C11=128.43              C47-C7-C14=119.26              H56-C7-C14=120.03              H56-C7-C47=120.71              
C15-C9-H8=129.43               N27-C9-H8=120.98               N27-C9-C15=109.56              C16-C10-H4=122.95              
S17-C10-H4=114.79              S17-C10-C16=122.26             

 selected dihedral angles (degree)
 ---------------------------------
C11-N6-C2-N27=353.06          C11-N6-C2-C42=172.74          C54-N6-C2-N27=180.11          C54-N6-C2-C42=359.78          
           -------------------------------------------------
          |                Final Singlepoint                |
           -------------------------------------------------

          ...................................................
          :                      SETUP                      :
          :.................................................:
          :  # basis functions                 217          :
          :  # atomic orbitals                 216          :
          :  # shells                          118          :
          :  # electrons                       219          :
          :  max. iterations                   250          :
          :  Hamiltonian                  GFN2-xTB          :
          :  restarted?                      false          :
          :  GBSA solvation                  false          :
          :  PC potential                    false          :
          :  electronic temp.          300.0000000     K    :
          :  accuracy                    1.0000000          :
          :  -> integral cutoff          0.2500000E+02      :
          :  -> integral neglect         0.1000000E-07      :
          :  -> SCF convergence          0.1000000E-05 Eh   :
          :  -> wf. convergence          0.1000000E-03 e    :
          :  Broyden damping             0.4000000          :
          :  net charge                          0          :
          :  unpaired electrons                  0          :
          ...................................................

 iter      E             dE          RMSdq      gap      omega  full diag
   1   -120.2079311 -0.120208E+03  0.773E-05    0.17       0.0  T
   2   -120.2079311  0.786557E-09  0.101E-04    0.17     118.6  T
   3   -120.2079311 -0.992387E-09  0.410E-05    0.17     291.6  T

   *** convergence criteria satisfied after 3 iterations ***

         #    Occupation            Energy/Eh            Energy/eV
      -------------------------------------------------------------
         1        2.0000           -0.7419902             -20.1906
       ...           ...                  ...                  ...
       104        2.0000           -0.3958268             -10.7710
       105        2.0000           -0.3908244             -10.6349
       106        2.0000           -0.3731010             -10.1526
       107        2.0000           -0.3670408              -9.9877
       108        2.0000           -0.3581339              -9.7453
       109        2.0000           -0.3381604              -9.2018
       110        0.9646           -0.3181101              -8.6562 (HOMO)
       111        0.0354           -0.3118324              -8.4854 (LUMO)
       112                         -0.2917286              -7.9383
       113                         -0.2727407              -7.4217
       114                         -0.2480055              -6.7486
       115                         -0.2433905              -6.6230
       ...                                ...                  ...
       216                          1.1832036              32.1966
      -------------------------------------------------------------
                  HL-Gap            0.0062777 Eh            0.1708 eV
             Fermi-level           -0.3215535 Eh           -8.7499 eV

 SCC (total)                   0 d,  0 h,  0 min,  0.075 sec
 SCC setup                      ...        0 min,  0.000 sec (  0.494%)
 Dispersion                     ...        0 min,  0.001 sec (  1.494%)
 classical contributions        ...        0 min,  0.000 sec (  0.244%)
 integral evaluation            ...        0 min,  0.013 sec ( 17.071%)
 iterations                     ...        0 min,  0.017 sec ( 23.043%)
 molecular gradient             ...        0 min,  0.042 sec ( 55.791%)
 printout                       ...        0 min,  0.001 sec (  1.844%)

         :::::::::::::::::::::::::::::::::::::::::::::::::::::
         ::                     SUMMARY                     ::
         :::::::::::::::::::::::::::::::::::::::::::::::::::::
         :: total energy            -118.105538219540 Eh    ::
         :: gradient norm              0.001393701868 Eh/a0 ::
         :: HOMO-LUMO gap              0.170824848669 eV    ::
         ::.................................................::
         :: SCC energy              -120.208982693337 Eh    ::
         :: -> isotropic ES            0.038709929513 Eh    ::
         :: -> anisotropic ES          0.010413140007 Eh    ::
         :: -> anisotropic XC          0.085974218776 Eh    ::
         :: -> dispersion             -0.101134204240 Eh    ::
         :: repulsion energy           2.103444473796 Eh    ::
         :: add. restraining           0.000000000000 Eh    ::
         :: total charge               0.000000000001 e     ::
         :::::::::::::::::::::::::::::::::::::::::::::::::::::

           -------------------------------------------------
          |                Property Printout                |
           -------------------------------------------------

    * Orbital Energies and Occupations

         #    Occupation            Energy/Eh            Energy/eV
      -------------------------------------------------------------
         1        2.0000           -0.7419902             -20.1906
       ...           ...                  ...                  ...
        98        2.0000           -0.4194259             -11.4132
        99        2.0000           -0.4153757             -11.3029
       100        2.0000           -0.4128411             -11.2340
       101        2.0000           -0.4083525             -11.1118
       102        2.0000           -0.4032723             -10.9736
       103        2.0000           -0.3967960             -10.7974
       104        2.0000           -0.3958268             -10.7710
       105        2.0000           -0.3908244             -10.6349
       106        2.0000           -0.3731010             -10.1526
       107        2.0000           -0.3670408              -9.9877
       108        2.0000           -0.3581339              -9.7453
       109        2.0000           -0.3381604              -9.2018
       110        0.9646           -0.3181101              -8.6562 (HOMO)
       111        0.0354           -0.3118324              -8.4854 (LUMO)
       112                         -0.2917286              -7.9383
       113                         -0.2727407              -7.4217
       114                         -0.2480055              -6.7486
       115                         -0.2433905              -6.6230
       116                         -0.2403991              -6.5416
       117                         -0.2353779              -6.4050
       118                         -0.2292344              -6.2378
       119                         -0.2290479              -6.2327
       120                         -0.2244016              -6.1063
       121                         -0.2117909              -5.7631
       ...                                ...                  ...
       216                          1.1832036              32.1966
      -------------------------------------------------------------
                  HL-Gap            0.0062777 Eh            0.1708 eV
             Fermi-level           -0.3215535 Eh           -8.7499 eV

     #   Z          covCN         q      C6AA      α(0)
     1   1 H        0.926     0.056     2.248     2.345
     2   6 C        2.995     0.106    25.637     8.306
     3   1 H        0.926     0.039     2.458     2.452
     4   1 H        0.926     0.053     2.280     2.361
     5   6 C        3.103    -0.016    28.265     8.712
     6   7 N        2.815    -0.011    21.473     6.882
     7   6 C        2.918    -0.031    28.772     8.796
     8   1 H        0.926     0.034     2.529     2.487
     9   6 C        3.032    -0.009    28.206     8.711
    10   6 C        2.890    -0.033    28.815     8.801
    11   6 C        1.849     0.168    27.095     8.409
    12   7 N        1.839    -0.238    27.060     7.709
    13   1 H        0.926     0.046     2.366     2.405
    14   6 C        2.997    -0.039    28.948     8.826
    15   6 C        3.017    -0.063    29.547     8.916
    16   6 C        3.122    -0.000    27.849     8.642
    17  16 S        2.103    -0.041   142.750    20.109
    18   1 H        0.926     0.036     2.507     2.476
    19   6 C        2.976     0.080    26.201     8.396
    20   6 C        3.068    -0.022    28.488     8.752
    21   1 H        0.926     0.050     2.317     2.380
    22   6 C        2.916    -0.048    29.188     8.859
    23   6 C        2.923    -0.031    28.774     8.797
    24   6 C        2.911    -0.039    28.971     8.826
    25   6 C        2.866     0.066    26.507     8.439
    26   1 H        0.926     0.035     2.515     2.480
    27   7 N        2.833    -0.020    21.627     6.907
    28   7 N        0.911    -0.260    26.742     7.479
    29   6 C        2.906    -0.042    29.045     8.837
    30   1 H        0.926     0.020     2.739     2.588
    31   6 C        2.962     0.009    27.821     8.652
    32   6 C        3.091     0.025    27.334     8.570
    33   6 C        2.973     0.076    26.291     8.411
    34   6 C        2.979     0.020    27.546     8.609
    35   6 C        2.972     0.037    27.166     8.549
    36   1 H        0.926     0.045     2.381     2.413
    37   1 H        0.923     0.077     2.015     2.220
    38   6 C        2.923    -0.046    29.134     8.852
    39   1 H        0.925     0.041     2.439     2.442
    40   6 C        2.971    -0.083    30.082     8.997
    41   1 H        0.926     0.053     2.277     2.360
    42   6 C        2.993    -0.084    30.088     8.998
    43   1 H        0.926     0.025     2.660     2.550
    44   1 H        0.926     0.040     2.444     2.445
    45   6 C        2.905     0.065    26.537     8.447
    46   6 C        3.100     0.006    27.771     8.636
    47   6 C        2.916    -0.026    28.663     8.779
    48   6 C        2.909    -0.041    29.018     8.833
    49   6 C        2.984     0.006    27.870     8.660
    50   7 N        1.824    -0.227    26.811     7.672
    51   6 C        3.767     0.018    20.316     6.424
    52   6 C        2.976     0.014    27.702     8.633
    53   6 C        3.108     0.014    27.547     8.599
    54   6 C        3.029     0.018    27.572     8.613
    55   6 C        2.922    -0.032    28.799     8.800
    56   1 H        0.926     0.042     2.421     2.433
    57   6 C        3.043    -0.029    28.675     8.783
    58   1 H        0.925     0.041     2.437     2.441
    59   1 H        0.925     0.039     2.464     2.455
    60   1 H        0.926     0.030     2.593     2.518
    61   1 H        0.926     0.035     2.517     2.481
    62   7 N        1.837    -0.231    26.901     7.686
    63   6 C        2.923    -0.028    28.696     8.785
    64   6 C        2.903     0.065    26.539     8.447
    65   1 H        0.926     0.045     2.382     2.414
    66   1 H        0.923     0.074     2.040     2.233
    67   6 C        2.926    -0.020    28.505     8.756
    68   1 H        0.926     0.043     2.409     2.427
    69   6 C        2.922    -0.024    28.598     8.770
    70   6 C        2.976     0.017    27.620     8.621

 Mol. C6AA /au·bohr⁶  :      83320.641285
 Mol. C8AA /au·bohr⁸  :    2200864.574926
 Mol. α(0) /au        :        465.498703


Wiberg/Mayer (AO) data.
largest (>0.10) Wiberg bond orders for each atom

 ---------------------------------------------------------------------------
     #   Z sym  total        # sym  WBO       # sym  WBO       # sym  WBO
 ---------------------------------------------------------------------------
     1   1 H    0.996 --    67 C    0.966
     2   6 C    3.933 --    42 C    1.573    27 N    1.088     6 N    1.061
     3   1 H    0.998 --    22 C    0.967
     4   1 H    0.996 --    10 C    0.963
     5   6 C    3.975 --    32 C    1.353    15 C    1.258    20 C    1.155
     6   7 N    3.614 --    11 C    1.175    54 C    1.072     2 C    1.061
                            28 N    0.120
     7   6 C    3.971 --    14 C    1.429    47 C    1.404    56 H    0.970
     8   1 H    0.998 --     9 C    0.968
     9   6 C    3.921 --    15 C    1.575    27 N    1.163     8 H    0.968
    10   6 C    3.822 --    16 C    1.427    17 S    1.202     4 H    0.963
    11   6 C    3.949 --    28 N    2.703     6 N    1.175
    12   7 N    3.052 --    45 C    1.538    19 C    1.282
    13   1 H    0.997 --    14 C    0.967
    14   6 C    3.986 --     7 C    1.429    35 C    1.415    13 H    0.967
    15   6 C    3.967 --     9 C    1.575     5 C    1.258    61 H    0.972
    16   6 C    3.987 --    10 C    1.427    54 C    1.238    42 C    1.166
    17  16 S    2.537 --    10 C    1.202    35 C    1.056
    18   1 H    0.998 --    55 C    0.968
    19   6 C    3.981 --    12 N    1.282    67 C    1.269    33 C    1.235
    20   6 C    3.977 --    57 C    1.552     5 C    1.155    46 C    1.074
    21   1 H    0.995 --    42 C    0.968
    22   6 C    3.985 --    34 C    1.487    45 C    1.325     3 H    0.967
    23   6 C    3.986 --    55 C    1.472    70 C    1.370    26 H    0.967
    24   6 C    3.991 --    67 C    1.560    64 C    1.306    44 H    0.970
    25   6 C    3.973 --    50 N    1.769    31 C    1.123    59 H    0.955
    26   1 H    0.998 --    23 C    0.967
    27   7 N    3.600 --     9 C    1.163    32 C    1.111     2 C    1.088
    28   7 N    2.963 --    11 C    2.703     6 N    0.120
    29   6 C    3.930 --    48 C    1.613    32 C    1.218    43 H    0.966
    30   1 H    0.999 --    40 C    0.971
    31   6 C    3.919 --    53 C    1.478    25 C    1.123    52 C    1.077
    32   6 C    3.935 --     5 C    1.353    29 C    1.218    27 N    1.111
    33   6 C    3.979 --    62 N    1.292    19 C    1.235    34 C    1.221
    34   6 C    3.984 --    22 C    1.487    33 C    1.221    70 C    1.061
    35   6 C    3.948 --    14 C    1.415    49 C    1.276    17 S    1.056
    36   1 H    0.997 --    63 C    0.967
    37   1 H    0.988 --    51 C    0.910
    38   6 C    3.979 --    47 C    1.476    49 C    1.310    65 H    0.958
    39   1 H    0.998 --    64 C    0.963
    40   6 C    3.957 --    46 C    1.484    53 C    1.225    30 H    0.971
                            57 C    0.104
    41   1 H    0.996 --    69 C    0.965
    42   6 C    3.962 --     2 C    1.573    16 C    1.166    21 H    0.968
    43   1 H    0.999 --    29 C    0.966
    44   1 H    0.998 --    24 C    0.970
    45   6 C    3.979 --    12 N    1.538    22 C    1.325    58 H    0.962
    46   6 C    3.969 --    40 C    1.484    48 C    1.219    20 C    1.074
    47   6 C    3.983 --    38 C    1.476     7 C    1.404    68 H    0.970
    48   6 C    3.985 --    29 C    1.613    46 C    1.219    60 H    0.968
    49   6 C    3.988 --    38 C    1.310    35 C    1.276    54 C    1.212
    50   7 N    3.046 --    25 C    1.769    51 C    1.050
    51   6 C    3.988 --    50 N    1.050    57 C    1.033    66 H    0.915
                            37 H    0.910
    52   6 C    3.980 --    63 C    1.363    55 C    1.362    31 C    1.077
    53   6 C    3.974 --    31 C    1.478    40 C    1.225    57 C    1.058
    54   6 C    3.868 --    16 C    1.238    49 C    1.212     6 N    1.072
    55   6 C    3.974 --    23 C    1.472    52 C    1.362    18 H    0.968
    56   1 H    0.997 --     7 C    0.970
    57   6 C    3.966 --    20 C    1.552    53 C    1.058    51 C    1.033
                            40 C    0.104
    58   1 H    0.997 --    45 C    0.962
    59   1 H    0.998 --    25 C    0.955
    60   1 H    0.998 --    48 C    0.968
    61   1 H    0.997 --    15 C    0.972
    62   7 N    3.069 --    64 C    1.548    33 C    1.292    67 C    0.106
    63   6 C    3.981 --    69 C    1.470    52 C    1.363    36 H    0.967
    64   6 C    3.976 --    62 N    1.548    24 C    1.306    39 H    0.963
    65   1 H    0.998 --    38 C    0.958
    66   1 H    0.988 --    51 C    0.915
    67   6 C    3.984 --    24 C    1.560    19 C    1.269     1 H    0.966
                            62 N    0.106
    68   1 H    0.997 --    47 C    0.970
    69   6 C    3.987 --    63 C    1.470    70 C    1.371    41 H    0.965
    70   6 C    3.972 --    69 C    1.371    23 C    1.370    34 C    1.061
 ---------------------------------------------------------------------------

Topologies differ in bond orders
Writing corrected topology to xtbtopo.sdf

molecular dipole:
                 x           y           z       tot (Debye)
 q only:       -0.664      -0.240       0.791
   full:       -0.511      -0.362       1.194       3.428
molecular quadrupole (traceless):
                xx          xy          yy          xz          yz          zz
 q only:       11.149       5.501      -4.516     -17.464       4.140      -6.634
  q+dip:       18.173       7.413      -3.513     -17.540       4.723     -14.660
   full:       13.361      10.471       0.634     -18.502       5.110     -13.995

           -------------------------------------------------
          |                Geometry Summary                 |
           -------------------------------------------------

      molecular mass/u    :      619.7170799
   center of mass at/Å    :       -0.3941023       0.0244725       0.1864836
  moments of inertia/u·Å² :        0.2840554E+04   0.3007263E+05   0.3112449E+05
rotational constants/cm⁻¹ :        0.5934629E-02   0.5605639E-03   0.5416195E-03

 * 73 selected distances

     #   Z          #   Z                                           value/Å
     2   6 C        6   7 N                                       1.4010560
     8   1 H        9   6 C                                       1.0722578
     4   1 H       10   6 C                                       1.0743767
     6   7 N       11   6 C                                       1.3207720
     7   6 C       14   6 C                                       1.3834290
    13   1 H       14   6 C                                       1.0796039
     5   6 C       15   6 C                                       1.4155473
     9   6 C       15   6 C                                       1.3641453
    10   6 C       16   6 C                                       1.3704091
    10   6 C       17  16 S                                       1.7247238 (max)
    12   7 N       19   6 C                                       1.3475292
     5   6 C       20   6 C                                       1.4226764
     3   1 H       22   6 C                                       1.0796500
    23   6 C       26   1 H                                       1.0804232
     2   6 C       27   7 N                                       1.3764794
     9   6 C       27   7 N                                       1.3749980
    11   6 C       28   7 N                                       1.1480793
     5   6 C       32   6 C                                       1.3958633
    27   7 N       32   6 C                                       1.3825637
    29   6 C       32   6 C                                       1.4156909
    19   6 C       33   6 C                                       1.4230650
    22   6 C       34   6 C                                       1.3795727
    33   6 C       34   6 C                                       1.4250548
    14   6 C       35   6 C                                       1.3862034
    30   1 H       40   6 C                                       1.0728911
     2   6 C       42   6 C                                       1.3578331
    16   6 C       42   6 C                                       1.4319697
    21   1 H       42   6 C                                       1.0705445 (min)
    29   6 C       43   1 H                                       1.0797897
    24   6 C       44   1 H                                       1.0792180
    12   7 N       45   6 C                                       1.3043526
    22   6 C       45   6 C                                       1.4023047
    40   6 C       46   6 C                                       1.3781371
     7   6 C       47   6 C                                       1.3871230
    38   6 C       47   6 C                                       1.3780615
    29   6 C       48   6 C                                       1.3615548
    46   6 C       48   6 C                                       1.4186262
    35   6 C       49   6 C                                       1.4142738
    38   6 C       49   6 C                                       1.4065822
    25   6 C       50   7 N                                       1.2726385
    37   1 H       51   6 C                                       1.1001659
    50   7 N       51   6 C                                       1.4266535
    31   6 C       53   6 C                                       1.3725840
    40   6 C       53   6 C                                       1.4214701
     6   7 N       54   6 C                                       1.3975400
    16   6 C       54   6 C                                       1.4167540
    49   6 C       54   6 C                                       1.4187511
    18   1 H       55   6 C                                       1.0806129
    23   6 C       55   6 C                                       1.3782857
    52   6 C       55   6 C                                       1.3961451
     7   6 C       56   1 H                                       1.0785786
    20   6 C       57   6 C                                       1.3623788
    51   6 C       57   6 C                                       1.4796322
    45   6 C       58   1 H                                       1.0831112
    25   6 C       59   1 H                                       1.0847049
    48   6 C       60   1 H                                       1.0800410
    15   6 C       61   1 H                                       1.0712201
    33   6 C       62   7 N                                       1.3469066
    36   1 H       63   6 C                                       1.0792493
    52   6 C       63   6 C                                       1.3960360
    24   6 C       64   6 C                                       1.4067522
    39   1 H       64   6 C                                       1.0831446
    62   7 N       64   6 C                                       1.3026305
    38   6 C       65   1 H                                       1.0770859
    51   6 C       66   1 H                                       1.0992379
     1   1 H       67   6 C                                       1.0794144
    19   6 C       67   6 C                                       1.4119586
    24   6 C       67   6 C                                       1.3675729
    47   6 C       68   1 H                                       1.0791637
    41   1 H       69   6 C                                       1.0774406
    63   6 C       69   6 C                                       1.3786422
    23   6 C       70   6 C                                       1.3953882
    69   6 C       70   6 C                                       1.3942088

 * 4 distinct bonds (by element types)

   Z      Z             #   av. dist./Å        max./Å        min./Å
   1 H    6 C          23     1.0800837     1.1001659     1.0705445
   6 C    6 C          36     1.3976301     1.4796322     1.3578331
   6 C    7 N          13     1.3386307     1.4266535     1.1480793
   6 C   16 S           1     1.7247238     1.7247238     1.7247238


optimized geometry written to: xtbopt.sdf


           -------------------------------------------------
          | TOTAL ENERGY             -118.105538219540 Eh   |
          | GRADIENT NORM               0.001393701868 Eh/α |
          | HOMO-LUMO GAP               0.170824848669 eV   |
           -------------------------------------------------

------------------------------------------------------------------------
 * finished run on 2026/08/20 at 06:26:03.081     
------------------------------------------------------------------------
 total:
 * wall-time:     0 d,  0 h,  0 min,  4.681 sec
 *  cpu-time:     0 d,  0 h,  0 min,  4.649 sec
 * ratio c/w:     0.993 speedup
 SCF:
 * wall-time:     0 d,  0 h,  0 min,  0.182 sec
 *  cpu-time:     0 d,  0 h,  0 min,  0.182 sec
 * ratio c/w:     1.000 speedup
 ANC optimizer:
Note: The following floating-point exceptions are signalling: IEEE_UNDERFLOW_FLAG IEEE_DENORMAL
normal termination of xtb
 * wall-time:     0 d,  0 h,  0 min,  4.460 sec
 *  cpu-time:     0 d,  0 h,  0 min,  4.445 sec
 * ratio c/w:     0.997 speedup

