      -----------------------------------------------------------      
     |                   =====================                   |     
     |                           x T B                           |     
     |                   =====================                   |     
     |                         S. Grimme                         |     
     |          Mulliken Center for Theoretical Chemistry        |     
     |                    University of Bonn                     |     
      -----------------------------------------------------------      

   * xtb version 6.7.1 (edcfbbe) compiled by 'conda@5dfe00f5fb80' on 2026-06-10

   xtb is free software: you can redistribute it and/or modify it under
   the terms of the GNU Lesser General Public License as published by
   the Free Software Foundation, either version 3 of the License, or
   (at your option) any later version.
   
   xtb is distributed in the hope that it will be useful,
   but WITHOUT ANY WARRANTY; without even the implied warranty of
   MERCHANTABILITY or FITNESS FOR A PARTICULAR PURPOSE.  See the
   GNU Lesser General Public License for more details.
   
   Cite this work as:
   * C. Bannwarth, E. Caldeweyher, S. Ehlert, A. Hansen, P. Pracht,
     J. Seibert, S. Spicher, S. Grimme, WIREs Comput. Mol. Sci., 2020, 11,
     e01493. DOI: 10.1002/wcms.1493
   
   for GFN2-xTB:
   * C. Bannwarth, S. Ehlert and S. Grimme., J. Chem. Theory Comput., 2019,
     15, 1652-1671. DOI: 10.1021/acs.jctc.8b01176
   for GFN1-xTB:
   * S. Grimme, C. Bannwarth, P. Shushkov, J. Chem. Theory Comput., 2017,
     13, 1989-2009. DOI: 10.1021/acs.jctc.7b00118
   for GFN0-xTB:
   * P. Pracht, E. Caldeweyher, S. Ehlert, S. Grimme, ChemRxiv, 2019, preprint.
     DOI: 10.26434/chemrxiv.8326202.v1
   for GFN-FF:
   * S. Spicher and S. Grimme, Angew. Chem. Int. Ed., 2020, 59, 15665-15673.
     DOI: 10.1002/anie.202004239
   
   for ALPB and GBSA implicit solvation:
   * S. Ehlert, M. Stahn, S. Spicher, S. Grimme, J. Chem. Theory Comput.,
     2021, 17, 4250-4261. DOI: 10.1021/acs.jctc.1c00471
   
   for ddCOSMO and CPCM-X implicit solvation:
   * M. Stahn, S. Ehlert, S. Grimme, J. Phys. Chem. A,
     2023, XX, XXXX-XXXX. DOI: 10.1021/acs.jpca.3c04382
   
   for DFT-D4:
   * E. Caldeweyher, C. Bannwarth and S. Grimme, J. Chem. Phys., 2017,
     147, 034112. DOI: 10.1063/1.4993215
   * E. Caldeweyher, S. Ehlert, A. Hansen, H. Neugebauer, S. Spicher,
     C. Bannwarth and S. Grimme, J. Chem. Phys., 2019, 150, 154122.
     DOI: 10.1063/1.5090222
   * E. Caldeweyher, J.-M. Mewes, S. Ehlert and S. Grimme, Phys. Chem. Chem. Phys.
     2020, 22, 8499-8512. DOI: 10.1039/D0CP00502A
   
   for sTDA-xTB:
   * S. Grimme and C. Bannwarth, J. Chem. Phys., 2016, 145, 054103.
     DOI: 10.1063/1.4959605
   
   in the mass-spec context:
   * V. Asgeirsson, C. Bauer and S. Grimme, Chem. Sci., 2017, 8, 4879.
     DOI: 10.1039/c7sc00601b
   * J. Koopman and S. Grimme, ACS Omega 2019, 4, 12, 15120-15133.
     DOI: 10.1021/acsomega.9b02011
   
   for metadynamics refer to:
   * S. Grimme, J. Chem. Theory Comput., 2019, 155, 2847-2862
     DOI: 10.1021/acs.jctc.9b00143
   
   for SPH calculations refer to:
   * S. Spicher and S. Grimme, J. Chem. Theory Comput., 2021, 17, 1701-1714
     DOI: 10.1021/acs.jctc.0c01306
   
   for ONIOM refer to:
   * C. Plett, A. Katbashev, S. Ehlert, S. Grimme, M. Bursch,
     Phys. Chem. Chem. Phys., 2023, 25, 17860-17868. DOI: 10.1039/D3CP02178E
   
   for DIPRO refer to:
   * J. Kohn, N. Gildemeister, S. Grimme, D. Fazzi, A. Hansen,
     J. Chem. Phys., 2023, just accepted.
   
   for PTB refer to:
   * S. Grimme, M. Mueller, A. Hansen, J. Chem. Phys., 2023, 158, 124111.
     DOI: 10.1063/5.0137838
   
   with help from (in alphabetical order)
   P. Atkinson, C. Bannwarth, F. Bohle, G. Brandenburg, E. Caldeweyher
   M. Checinski, S. Dohm, S. Ehlert, S. Ehrlich, I. Gerasimov, C. Hölzer
   A. Katbashev, J. Kohn, J. Koopman, C. Lavigne, S. Lehtola, F. März, M. Müller,
   F. Musil, H. Neugebauer, J. Pisarek, C. Plett, P. Pracht, F. Pultar,
   J. Seibert, P. Shushkov, S. Spicher, M. Stahn, M. Steiner, T. Strunk,
   J. Stückrath, T. Rose, and J. Unsleber
   
 * started run on 2026/08/20 at 06:25:58.400     
   ID    Z sym.   atoms
    1    6 C      1, 2, 8, 9, 12, 15-18, 20, 21, 23-26, 28, 30-32, 34, 35,
                  37, 38, 40, 43, 48-52, 57, 58, 60-62, 67, 73, 74, 76, 78,
                  81-83
    2    7 N      3, 11, 29, 41, 56, 59, 69, 75
    3    1 H      4-7, 10, 13, 14, 19, 22, 27, 36, 39, 42, 44, 45, 47, 53-55,
                  63-66, 68, 70-72, 77, 79, 80
    4    8 O      33, 46

           -------------------------------------------------
          |                Calculation Setup                |
           -------------------------------------------------

          program call               : xtb 00045.sdf --opt loose --cycles 500
          coordinate file            : 00045.sdf
          omp threads                :                     1


           -------------------------------------------------
          |                 G F N 2 - x T B                 |
           -------------------------------------------------

        Reference                      10.1021/acs.jctc.8b01176
      * Hamiltonian:
        H0-scaling (s, p, d)           1.850000    2.230000    2.230000
        zeta-weighting                 0.500000
      * Dispersion:
        s8                             2.700000
        a1                             0.520000
        a2                             5.000000
        s9                             5.000000
      * Repulsion:
        kExp                           1.500000    1.000000
        rExp                           1.000000
      * Coulomb:
        alpha                          2.000000
        third order                    shell-resolved
        anisotropic                    true
        a3                             3.000000
        a5                             4.000000
        cn-shift                       1.200000
        cn-exp                         4.000000
        max-rad                        5.000000


          ...................................................
          :                      SETUP                      :
          :.................................................:
          :  # basis functions                 242          :
          :  # atomic orbitals                 242          :
          :  # shells                          136          :
          :  # electrons                       254          :
          :  max. iterations                   250          :
          :  Hamiltonian                  GFN2-xTB          :
          :  restarted?                      false          :
          :  GBSA solvation                  false          :
          :  PC potential                    false          :
          :  electronic temp.          300.0000000     K    :
          :  accuracy                    1.0000000          :
          :  -> integral cutoff          0.2500000E+02      :
          :  -> integral neglect         0.1000000E-07      :
          :  -> SCF convergence          0.1000000E-05 Eh   :
          :  -> wf. convergence          0.1000000E-03 e    :
          :  Broyden damping             0.4000000          :
          :  net charge                          0          :
          :  unpaired electrons                  0          :
          ...................................................

 iter      E             dE          RMSdq      gap      omega  full diag
   1   -139.6081408 -0.139608E+03  0.475E+00    0.87       0.0  T
   2   -139.5594200  0.487208E-01  0.350E+00    1.21       1.0  T
   3   -139.5519399  0.748011E-02  0.264E+00    1.13       1.0  T
   4   -139.8011826 -0.249243E+00  0.133E+00    1.24       1.0  T
   5   -139.9502619 -0.149079E+00  0.484E-01    1.22       1.0  T
   6   -139.9723458 -0.220839E-01  0.159E-01    1.27       1.0  T
   7   -139.9728753 -0.529506E-03  0.101E-01    1.27       1.0  T
   8   -139.9733081 -0.432803E-03  0.626E-02    1.28       1.0  T
   9   -139.9734677 -0.159513E-03  0.355E-02    1.26       1.0  T
  10   -139.9735716 -0.103924E-03  0.151E-02    1.27       1.0  T
  11   -139.9735865 -0.149432E-04  0.595E-03    1.27       1.8  T
  12   -139.9735885 -0.201018E-05  0.312E-03    1.27       3.5  T
  13   -139.9735892 -0.702416E-06  0.113E-03    1.27       9.7  T
  14   -139.9735893 -0.381667E-07  0.593E-04    1.27      18.5  T
  15   -139.9735893 -0.101725E-07  0.270E-04    1.27      40.6  T

   *** convergence criteria satisfied after 15 iterations ***

         #    Occupation            Energy/Eh            Energy/eV
      -------------------------------------------------------------
         1        2.0000           -0.7370742             -20.0568
       ...           ...                  ...                  ...
       121        2.0000           -0.3690540             -10.0425
       122        2.0000           -0.3629339              -9.8759
       123        2.0000           -0.3612717              -9.8307
       124        2.0000           -0.3564461              -9.6994
       125        2.0000           -0.3561792              -9.6921
       126        2.0000           -0.3533183              -9.6143
       127        2.0000           -0.3502117              -9.5297 (HOMO)
       128                         -0.3035191              -8.2592 (LUMO)
       129                         -0.2995791              -8.1520
       130                         -0.2884902              -7.8502
       131                         -0.2718882              -7.3985
       132                         -0.2581989              -7.0259
       ...                                ...                  ...
       242                          0.6623566              18.0236
      -------------------------------------------------------------
                  HL-Gap            0.0466925 Eh            1.2706 eV
             Fermi-level           -0.3268537 Eh           -8.8941 eV

 SCC (total)                   0 d,  0 h,  0 min,  0.175 sec
 SCC setup                      ...        0 min,  0.001 sec (  0.407%)
 Dispersion                     ...        0 min,  0.002 sec (  1.147%)
 classical contributions        ...        0 min,  0.000 sec (  0.154%)
 integral evaluation            ...        0 min,  0.015 sec (  8.822%)
 iterations                     ...        0 min,  0.100 sec ( 57.477%)
 molecular gradient             ...        0 min,  0.055 sec ( 31.572%)
 printout                       ...        0 min,  0.001 sec (  0.415%)

         :::::::::::::::::::::::::::::::::::::::::::::::::::::
         ::                     SUMMARY                     ::
         :::::::::::::::::::::::::::::::::::::::::::::::::::::
         :: total energy            -138.262047286184 Eh    ::
         :: gradient norm              0.401760955509 Eh/a0 ::
         :: HOMO-LUMO gap              1.270568747540 eV    ::
         ::.................................................::
         :: SCC energy              -139.974471239230 Eh    ::
         :: -> isotropic ES            0.092929544626 Eh    ::
         :: -> anisotropic ES          0.018649813567 Eh    ::
         :: -> anisotropic XC          0.108447807968 Eh    ::
         :: -> dispersion             -0.099500741395 Eh    ::
         :: repulsion energy           1.712423953046 Eh    ::
         :: add. restraining           0.000000000000 Eh    ::
         :: total charge               0.000000000001 e     ::
         :::::::::::::::::::::::::::::::::::::::::::::::::::::

      ----------------------------------------------------------- 
     |                   =====================                   |
     |                        A N C O P T                        |
     |                   =====================                   |
     |               Approximate Normal Coordinate               |
     |                Rational Function Optimizer                |
      ----------------------------------------------------------- 
      ----------------------------------------------------------- 
     |                   =====================                   |
     |                        A N C O P T                        |
     |                   =====================                   |
     |               Approximate Normal Coordinate               |
     |                Rational Function Optimizer                |
      ----------------------------------------------------------- 

          ...................................................
          :                      SETUP                      :
          :.................................................:
          :   optimization level             loose          :
          :   max. optcycles                   500          :
          :   ANC micro-cycles                  20          :
          :   degrees of freedom               243          :
          :.................................................:
          :   RF solver                   davidson          :
          :   write xtbopt.log                true          :
          :   linear?                        false          :
          :   energy convergence         0.5000000E-04 Eh   :
          :   grad. convergence          0.4000000E-02 Eh/α :
          :   maxmium RF displ.          1.0000000          :
          :   Hlow (freq-cutoff)         0.1000000E-01      :
          :   Hmax (freq-cutoff)         5.0000000          :
          :   S6 in model hess.         20.0000000          :
          ...................................................

generating ANC from exact Hessian ...
Using Lindh-Hessian (1995)
 Shifting diagonal of input Hessian by    9.9904736823007070E-003
 Lowest  eigenvalues of input Hessian
    0.000000    0.000000    0.000000    0.000000    0.000000    0.000000
    0.010000    0.010019    0.010029    0.010073    0.010166    0.010241
    0.010321    0.010383    0.010492    0.010547    0.010650    0.010799
 Highest eigenvalues
    1.904093    1.941782    1.953720    1.987754    2.104825    2.126666


........................................................................
.............................. CYCLE    1 ..............................
........................................................................

 iter      E             dE          RMSdq      gap      omega  full diag
   1   -139.9735893 -0.139974E+03  0.135E-04    1.27       0.0  T
   2   -139.9735893  0.108244E-08  0.144E-04    1.27      76.4  T
   3   -139.9735893 -0.149851E-08  0.808E-05    1.27     135.9  T
     SCC iter.                  ...        0 min,  0.022 sec
     gradient                   ...        0 min,  0.055 sec
 * total energy  :  -138.2620473 Eh     change       -0.4000185E-08 Eh
   gradient norm :     0.4017615 Eh/α   predicted     0.0000000E+00 (-100.00%)
   displ. norm   :     0.6453298 α      lambda       -0.1873848E+00
   maximum displ.:     0.2004631 α      in ANC's #131, #43, #102, ...

........................................................................
.............................. CYCLE    2 ..............................
........................................................................

 iter      E             dE          RMSdq      gap      omega  full diag
   1   -140.1820532 -0.140182E+03  0.370E-01    1.34       0.0  T
   2   -140.1821884 -0.135219E-03  0.248E-01    1.38       1.0  T
   3   -140.1813788  0.809601E-03  0.202E-01    1.34       1.0  T
   4   -140.1816842 -0.305433E-03  0.155E-01    1.38       1.0  T
   5   -140.1840376 -0.235335E-02  0.293E-02    1.36       1.0  T
   6   -140.1841011 -0.634996E-04  0.112E-02    1.37       1.0  T
   7   -140.1841080 -0.689701E-05  0.671E-03    1.36       1.6  T
   8   -140.1841111 -0.308207E-05  0.238E-03    1.37       4.6  T
   9   -140.1841113 -0.204045E-06  0.962E-04    1.36      11.4  T
  10   -140.1841113 -0.407410E-07  0.395E-04    1.36      27.8  T
     SCC iter.                  ...        0 min,  0.065 sec
     gradient                   ...        0 min,  0.055 sec
 * total energy  :  -138.4156280 Eh     change       -0.1535807E+00 Eh
   gradient norm :     0.2301745 Eh/α   predicted    -0.1328078E+00 ( -13.53%)
   displ. norm   :     0.7347850 α      lambda       -0.1320882E+00
   maximum displ.:     0.2064973 α      in ANC's #43, #131, #37, ...

........................................................................
.............................. CYCLE    3 ..............................
........................................................................

 iter      E             dE          RMSdq      gap      omega  full diag
   1   -140.3873562 -0.140387E+03  0.368E-01    1.41       0.0  T
   2   -140.3885053 -0.114914E-02  0.244E-01    1.44       1.0  T
   3   -140.3893506 -0.845223E-03  0.154E-01    1.42       1.0  T
   4   -140.3897621 -0.411589E-03  0.603E-02    1.43       1.0  T
   5   -140.3900595 -0.297313E-03  0.257E-02    1.42       1.0  T
   6   -140.3901281 -0.686876E-04  0.826E-03    1.43       1.3  T
   7   -140.3901290 -0.808032E-06  0.637E-03    1.43       1.7  T
   8   -140.3901316 -0.264296E-05  0.258E-03    1.43       4.3  T
   9   -140.3901320 -0.420914E-06  0.113E-03    1.43       9.7  T
  10   -140.3901321 -0.745654E-07  0.397E-04    1.43      27.7  T
  11   -140.3901321 -0.607812E-08  0.218E-04    1.43      50.3  T
     SCC iter.                  ...        0 min,  0.071 sec
     gradient                   ...        0 min,  0.055 sec
 * total energy  :  -138.5153225 Eh     change       -0.9969445E-01 Eh
   gradient norm :     0.1027603 Eh/α   predicted    -0.1017019E+00 (   2.01%)
   displ. norm   :     0.8236624 α      lambda       -0.7285475E-01
   maximum displ.:     0.2953470 α      in ANC's #43, #37, #23, ...

........................................................................
.............................. CYCLE    4 ..............................
........................................................................

 iter      E             dE          RMSdq      gap      omega  full diag
   1   -140.5120254 -0.140512E+03  0.265E-01    1.45       0.0  T
   2   -140.5120592 -0.338003E-04  0.182E-01    1.45       1.0  T
   3   -140.5115342  0.525065E-03  0.138E-01    1.47       1.0  T
   4   -140.5124918 -0.957650E-03  0.633E-02    1.44       1.0  T
   5   -140.5128418 -0.350032E-03  0.158E-02    1.46       1.0  T
   6   -140.5128624 -0.205979E-04  0.576E-03    1.45       1.9  T
   7   -140.5128642 -0.179116E-05  0.326E-03    1.45       3.4  T
   8   -140.5128648 -0.575644E-06  0.119E-03    1.45       9.2  T
   9   -140.5128649 -0.646358E-07  0.471E-04    1.45      23.3  T
  10   -140.5128649 -0.958977E-08  0.190E-04    1.45      57.7  T
     SCC iter.                  ...        0 min,  0.065 sec
     gradient                   ...        0 min,  0.055 sec
 * total energy  :  -138.5780494 Eh     change       -0.6272692E-01 Eh
   gradient norm :     0.0774043 Eh/α   predicted    -0.6114074E-01 (  -2.53%)
   displ. norm   :     0.8722202 α      lambda       -0.5731369E-01
   maximum displ.:     0.3152307 α      in ANC's #43, #23, #37, ...

........................................................................
.............................. CYCLE    5 ..............................
........................................................................

 iter      E             dE          RMSdq      gap      omega  full diag
   1   -140.6065316 -0.140607E+03  0.203E-01    1.47       0.0  T
   2   -140.6062291  0.302491E-03  0.153E-01    1.45       1.0  T
   3   -140.6062122  0.169702E-04  0.111E-01    1.48       1.0  T
   4   -140.6069520 -0.739825E-03  0.277E-02    1.46       1.0  T
   5   -140.6070186 -0.666547E-04  0.773E-03    1.47       1.4  T
   6   -140.6070221 -0.345135E-05  0.367E-03    1.47       3.0  T
   7   -140.6070223 -0.262301E-06  0.218E-03    1.47       5.0  T
   8   -140.6070227 -0.341091E-06  0.641E-04    1.47      17.1  T
   9   -140.6070227 -0.257903E-07  0.254E-04    1.47      43.2  T
     SCC iter.                  ...        0 min,  0.058 sec
     gradient                   ...        0 min,  0.055 sec
 * total energy  :  -138.6294102 Eh     change       -0.5136079E-01 Eh
   gradient norm :     0.0618678 Eh/α   predicted    -0.5045807E-01 (  -1.76%)
   displ. norm   :     0.8951057 α      lambda       -0.4763341E-01
   maximum displ.:     0.3174144 α      in ANC's #23, #43, #37, ...

........................................................................
.............................. CYCLE    6 ..............................
........................................................................

 iter      E             dE          RMSdq      gap      omega  full diag
   1   -140.6807039 -0.140681E+03  0.177E-01    1.47       0.0  T
   2   -140.6804935  0.210413E-03  0.132E-01    1.44       1.0  T
   3   -140.6806310 -0.137575E-03  0.919E-02    1.47       1.0  T
   4   -140.6810780 -0.446936E-03  0.190E-02    1.46       1.0  T
   5   -140.6811113 -0.333766E-04  0.504E-03    1.46       2.2  T
   6   -140.6811122 -0.884623E-06  0.262E-03    1.46       4.2  T
   7   -140.6811124 -0.160808E-06  0.140E-03    1.46       7.9  T
   8   -140.6811125 -0.119427E-06  0.487E-04    1.46      22.5  T
   9   -140.6811125 -0.159514E-07  0.214E-04    1.46      51.2  T
     SCC iter.                  ...        0 min,  0.058 sec
     gradient                   ...        0 min,  0.055 sec
 * total energy  :  -138.6725175 Eh     change       -0.4310727E-01 Eh
   gradient norm :     0.0486387 Eh/α   predicted    -0.4289902E-01 (  -0.48%)
   displ. norm   :     0.9056759 α      lambda       -0.3965826E-01
   maximum displ.:     0.3562253 α      in ANC's #23, #18, #37, ...

........................................................................
.............................. CYCLE    7 ..............................
........................................................................

 iter      E             dE          RMSdq      gap      omega  full diag
   1   -140.7510643 -0.140751E+03  0.159E-01    1.43       0.0  T
   2   -140.7510218  0.424913E-04  0.114E-01    1.41       1.0  T
   3   -140.7510878 -0.659403E-04  0.776E-02    1.43       1.0  T
   4   -140.7513740 -0.286217E-03  0.203E-02    1.43       1.0  T
   5   -140.7514139 -0.398776E-04  0.492E-03    1.43       2.2  T
   6   -140.7514153 -0.139041E-05  0.216E-03    1.43       5.1  T
   7   -140.7514153 -0.765727E-07  0.115E-03    1.43       9.5  T
   8   -140.7514154 -0.739578E-07  0.365E-04    1.43      30.1  T
   9   -140.7514154 -0.438479E-08  0.188E-04    1.43      58.5  T
     SCC iter.                  ...        0 min,  0.059 sec
     gradient                   ...        0 min,  0.055 sec
 * total energy  :  -138.7084001 Eh     change       -0.3588260E-01 Eh
   gradient norm :     0.0407158 Eh/α   predicted    -0.3609397E-01 (   0.59%)
   displ. norm   :     0.9063834 α      lambda       -0.3311443E-01
   maximum displ.:     0.3857491 α      in ANC's #23, #18, #25, ...

........................................................................
.............................. CYCLE    8 ..............................
........................................................................

 iter      E             dE          RMSdq      gap      omega  full diag
   1   -140.8073719 -0.140807E+03  0.157E-01    1.39       0.0  T
   2   -140.8074033 -0.314428E-04  0.100E-01    1.38       1.0  T
   3   -140.8072351  0.168253E-03  0.753E-02    1.40       1.0  T
   4   -140.8075535 -0.318394E-03  0.175E-02    1.39       1.0  T
   5   -140.8075851 -0.316484E-04  0.413E-03    1.39       2.7  T
   6   -140.8075861 -0.103116E-05  0.179E-03    1.39       6.1  T
   7   -140.8075862 -0.534681E-07  0.881E-04    1.39      12.5  T
   8   -140.8075862 -0.400547E-07  0.354E-04    1.39      31.0  T
     SCC iter.                  ...        0 min,  0.052 sec
     gradient                   ...        0 min,  0.056 sec
 * total energy  :  -138.7383467 Eh     change       -0.2994665E-01 Eh
   gradient norm :     0.0371822 Eh/α   predicted    -0.3015950E-01 (   0.71%)
   displ. norm   :     0.9087950 α      lambda       -0.2820491E-01
   maximum displ.:     0.4036093 α      in ANC's #23, #18, #26, ...

........................................................................
.............................. CYCLE    9 ..............................
........................................................................

 iter      E             dE          RMSdq      gap      omega  full diag
   1   -140.8671089 -0.140867E+03  0.148E-01    1.35       0.0  T
   2   -140.8671790 -0.701338E-04  0.937E-02    1.34       1.0  T
   3   -140.8670235  0.155533E-03  0.637E-02    1.36       1.0  T
   4   -140.8672670 -0.243470E-03  0.167E-02    1.35       1.0  T
   5   -140.8672946 -0.275800E-04  0.465E-03    1.35       2.4  T
   6   -140.8672961 -0.158710E-05  0.181E-03    1.35       6.0  T
   7   -140.8672962 -0.700548E-07  0.117E-03    1.35       9.4  T
   8   -140.8672963 -0.740188E-07  0.377E-04    1.35      29.1  T
   9   -140.8672963 -0.426891E-08  0.211E-04    1.35      52.1  T
     SCC iter.                  ...        0 min,  0.059 sec
     gradient                   ...        0 min,  0.056 sec
 * total energy  :  -138.7637357 Eh     change       -0.2538899E-01 Eh
   gradient norm :     0.0307468 Eh/α   predicted    -0.2574980E-01 (   1.42%)
   displ. norm   :     0.9067602 α      lambda       -0.2369423E-01
   maximum displ.:     0.4119950 α      in ANC's #23, #18, #26, ...

........................................................................
.............................. CYCLE   10 ..............................
........................................................................

 iter      E             dE          RMSdq      gap      omega  full diag
   1   -140.9139851 -0.140914E+03  0.138E-01    1.33       0.0  T
   2   -140.9140193 -0.342008E-04  0.846E-02    1.32       1.0  T
   3   -140.9138497  0.169622E-03  0.523E-02    1.34       1.0  T
   4   -140.9140585 -0.208848E-03  0.101E-02    1.33       1.1  T
   5   -140.9140672 -0.866566E-05  0.322E-03    1.33       3.4  T
   6   -140.9140677 -0.553029E-06  0.140E-03    1.33       7.8  T
   7   -140.9140678 -0.363122E-07  0.671E-04    1.33      16.3  T
   8   -140.9140678 -0.194256E-07  0.294E-04    1.33      37.4  T
     SCC iter.                  ...        0 min,  0.052 sec
     gradient                   ...        0 min,  0.056 sec
 * total energy  :  -138.7850463 Eh     change       -0.2131058E-01 Eh
   gradient norm :     0.0252227 Eh/α   predicted    -0.2158800E-01 (   1.30%)
   displ. norm   :     0.9040917 α      lambda       -0.1967081E-01
   maximum displ.:     0.4061697 α      in ANC's #23, #18, #26, ...

........................................................................
.............................. CYCLE   11 ..............................
........................................................................

 iter      E             dE          RMSdq      gap      omega  full diag
   1   -140.9587220 -0.140959E+03  0.131E-01    1.31       0.0  T
   2   -140.9587574 -0.354335E-04  0.804E-02    1.31       1.0  T
   3   -140.9586005  0.156884E-03  0.478E-02    1.32       1.0  T
   4   -140.9587897 -0.189130E-03  0.971E-03    1.31       1.1  T
   5   -140.9587983 -0.860534E-05  0.328E-03    1.32       3.3  T
   6   -140.9587988 -0.543696E-06  0.144E-03    1.31       7.6  T
   7   -140.9587989 -0.437012E-07  0.904E-04    1.31      12.1  T
   8   -140.9587989 -0.501156E-07  0.289E-04    1.31      38.0  T
     SCC iter.                  ...        0 min,  0.052 sec
     gradient                   ...        0 min,  0.056 sec
 * total energy  :  -138.8027573 Eh     change       -0.1771100E-01 Eh
   gradient norm :     0.0218307 Eh/α   predicted    -0.1787469E-01 (   0.92%)
   displ. norm   :     0.9024042 α      lambda       -0.1656660E-01
   maximum displ.:     0.3995912 α      in ANC's #23, #18, #25, ...

........................................................................
.............................. CYCLE   12 ..............................
........................................................................

 iter      E             dE          RMSdq      gap      omega  full diag
   1   -140.9989552 -0.140999E+03  0.128E-01    1.30       0.0  T
   2   -140.9989821 -0.268575E-04  0.781E-02    1.30       1.0  T
   3   -140.9988017  0.180405E-03  0.484E-02    1.31       1.0  T
   4   -140.9990140 -0.212318E-03  0.903E-03    1.30       1.2  T
   5   -140.9990225 -0.852204E-05  0.312E-03    1.30       3.5  T
   6   -140.9990230 -0.488263E-06  0.148E-03    1.30       7.4  T
   7   -140.9990231 -0.626412E-07  0.861E-04    1.30      12.7  T
   8   -140.9990231 -0.457977E-07  0.220E-04    1.30      49.9  T
     SCC iter.                  ...        0 min,  0.052 sec
     gradient                   ...        0 min,  0.056 sec
 * total energy  :  -138.8174962 Eh     change       -0.1473888E-01 Eh
   gradient norm :     0.0199219 Eh/α   predicted    -0.1502866E-01 (   1.97%)
   displ. norm   :     0.9010577 α      lambda       -0.1402945E-01
   maximum displ.:     0.3874070 α      in ANC's #18, #23, #11, ...

........................................................................
.............................. CYCLE   13 ..............................
........................................................................

 iter      E             dE          RMSdq      gap      omega  full diag
   1   -141.0269535 -0.141027E+03  0.135E-01    1.31       0.0  T
   2   -141.0269705 -0.170113E-04  0.801E-02    1.31       1.0  T
   3   -141.0268530  0.117488E-03  0.354E-02    1.32       1.0  T
   4   -141.0269832 -0.130212E-03  0.699E-03    1.31       1.6  T
   5   -141.0269864 -0.319665E-05  0.282E-03    1.31       3.9  T
   6   -141.0269866 -0.233251E-06  0.147E-03    1.31       7.4  T
   7   -141.0269867 -0.789400E-07  0.579E-04    1.31      19.0  T
   8   -141.0269867 -0.273800E-07  0.248E-04    1.31      44.3  T
     SCC iter.                  ...        0 min,  0.052 sec
     gradient                   ...        0 min,  0.056 sec
 * total energy  :  -138.8299341 Eh     change       -0.1243791E-01 Eh
   gradient norm :     0.0167286 Eh/α   predicted    -0.1271001E-01 (   2.19%)
   displ. norm   :     0.8980238 α      lambda       -0.1172278E-01
   maximum displ.:     0.3962458 α      in ANC's #18, #23, #11, ...

........................................................................
.............................. CYCLE   14 ..............................
........................................................................

 iter      E             dE          RMSdq      gap      omega  full diag
   1   -141.0565411 -0.141057E+03  0.121E-01    1.30       0.0  T
   2   -141.0565718 -0.306648E-04  0.735E-02    1.30       1.0  T
   3   -141.0564152  0.156555E-03  0.457E-02    1.31       1.0  T
   4   -141.0566008 -0.185583E-03  0.958E-03    1.31       1.1  T
   5   -141.0566110 -0.101746E-04  0.301E-03    1.31       3.6  T
   6   -141.0566115 -0.496512E-06  0.141E-03    1.31       7.8  T
   7   -141.0566115 -0.459920E-07  0.848E-04    1.31      12.9  T
   8   -141.0566116 -0.449796E-07  0.199E-04    1.31      55.1  T
     SCC iter.                  ...        0 min,  0.052 sec
     gradient                   ...        0 min,  0.056 sec
 * total energy  :  -138.8404805 Eh     change       -0.1054647E-01 Eh
   gradient norm :     0.0144062 Eh/α   predicted    -0.1058830E-01 (   0.40%)
   displ. norm   :     0.9040855 α      lambda       -0.1010865E-01
   maximum displ.:     0.3993202 α      in ANC's #18, #23, #11, ...

........................................................................
.............................. CYCLE   15 ..............................
........................................................................

 iter      E             dE          RMSdq      gap      omega  full diag
   1   -141.0762171 -0.141076E+03  0.132E-01    1.32       0.0  T
   2   -141.0762331 -0.160096E-04  0.778E-02    1.33       1.0  T
   3   -141.0761210  0.112113E-03  0.339E-02    1.33       1.0  T
   4   -141.0762465 -0.125454E-03  0.575E-03    1.33       1.9  T
   5   -141.0762483 -0.176386E-05  0.286E-03    1.33       3.8  T
   6   -141.0762486 -0.355008E-06  0.142E-03    1.33       7.7  T
   7   -141.0762487 -0.920813E-07  0.466E-04    1.33      23.6  T
   8   -141.0762487 -0.140991E-07  0.229E-04    1.33      47.8  T
     SCC iter.                  ...        0 min,  0.052 sec
     gradient                   ...        0 min,  0.056 sec
 * total energy  :  -138.8495523 Eh     change       -0.9071725E-02 Eh
   gradient norm :     0.0129179 Eh/α   predicted    -0.9185583E-02 (   1.26%)
   displ. norm   :     0.9053550 α      lambda       -0.8826200E-02
   maximum displ.:     0.3983540 α      in ANC's #18, #6, #11, ...

........................................................................
.............................. CYCLE   16 ..............................
........................................................................

 iter      E             dE          RMSdq      gap      omega  full diag
   1   -141.0943297 -0.141094E+03  0.123E-01    1.32       0.0  T
   2   -141.0943491 -0.193734E-04  0.726E-02    1.33       1.0  T
   3   -141.0942438  0.105269E-03  0.340E-02    1.34       1.0  T
   4   -141.0943634 -0.119596E-03  0.601E-03    1.33       1.8  T
   5   -141.0943663 -0.296346E-05  0.245E-03    1.33       4.5  T
   6   -141.0943666 -0.230921E-06  0.107E-03    1.33      10.3  T
   7   -141.0943666 -0.193578E-07  0.465E-04    1.33      23.6  T
   8   -141.0943666 -0.154149E-07  0.166E-04    1.33      66.1  T
     SCC iter.                  ...        0 min,  0.052 sec
     gradient                   ...        0 min,  0.056 sec
 * total energy  :  -138.8575131 Eh     change       -0.7960814E-02 Eh
   gradient norm :     0.0121027 Eh/α   predicted    -0.8030370E-02 (   0.87%)
   displ. norm   :     0.9066536 α      lambda       -0.7670981E-02
   maximum displ.:     0.3800626 α      in ANC's #18, #6, #11, ...

........................................................................
.............................. CYCLE   17 ..............................
........................................................................

 iter      E             dE          RMSdq      gap      omega  full diag
   1   -141.1087807 -0.141109E+03  0.124E-01    1.35       0.0  T
   2   -141.1087952 -0.144378E-04  0.730E-02    1.35       1.0  T
   3   -141.1086988  0.963912E-04  0.323E-02    1.36       1.0  T
   4   -141.1088069 -0.108136E-03  0.510E-03    1.35       2.2  T
   5   -141.1088086 -0.173368E-05  0.225E-03    1.35       4.9  T
   6   -141.1088088 -0.135891E-06  0.108E-03    1.35      10.2  T
   7   -141.1088088 -0.488812E-07  0.382E-04    1.35      28.7  T
   8   -141.1088088 -0.652619E-08  0.185E-04    1.35      59.4  T
     SCC iter.                  ...        0 min,  0.052 sec
     gradient                   ...        0 min,  0.056 sec
 * total energy  :  -138.8644531 Eh     change       -0.6940050E-02 Eh
   gradient norm :     0.0116046 Eh/α   predicted    -0.6988349E-02 (   0.70%)
   displ. norm   :     0.9093639 α      lambda       -0.6934101E-02
   maximum displ.:     0.3756244 α      in ANC's #6, #18, #11, ...

........................................................................
.............................. CYCLE   18 ..............................
........................................................................

 iter      E             dE          RMSdq      gap      omega  full diag
   1   -141.1206718 -0.141121E+03  0.126E-01    1.36       0.0  T
   2   -141.1206893 -0.175400E-04  0.746E-02    1.36       1.0  T
   3   -141.1205884  0.100937E-03  0.332E-02    1.37       1.0  T
   4   -141.1207034 -0.115083E-03  0.543E-03    1.36       2.0  T
   5   -141.1207053 -0.184661E-05  0.258E-03    1.36       4.2  T
   6   -141.1207056 -0.273048E-06  0.128E-03    1.36       8.6  T
   7   -141.1207056 -0.618739E-07  0.498E-04    1.36      22.0  T
   8   -141.1207056 -0.188494E-07  0.166E-04    1.36      66.3  T
     SCC iter.                  ...        0 min,  0.052 sec
     gradient                   ...        0 min,  0.056 sec
 * total energy  :  -138.8705816 Eh     change       -0.6128420E-02 Eh
   gradient norm :     0.0117991 Eh/α   predicted    -0.6334096E-02 (   3.36%)
   displ. norm   :     0.8977788 α      lambda       -0.6060595E-02
   maximum displ.:     0.3949997 α      in ANC's #6, #18, #11, ...

........................................................................
.............................. CYCLE   19 ..............................
........................................................................

 iter      E             dE          RMSdq      gap      omega  full diag
   1   -141.1303484 -0.141130E+03  0.117E-01    1.38       0.0  T
   2   -141.1303574 -0.900408E-05  0.690E-02    1.38       1.0  T
   3   -141.1302736  0.837867E-04  0.295E-02    1.38       1.0  T
   4   -141.1303669 -0.932584E-04  0.441E-03    1.38       2.5  T
   5   -141.1303678 -0.961571E-06  0.221E-03    1.38       5.0  T
   6   -141.1303680 -0.161850E-06  0.108E-03    1.38      10.2  T
   7   -141.1303680 -0.501641E-07  0.358E-04    1.38      30.6  T
   8   -141.1303680 -0.916936E-08  0.175E-04    1.38      62.7  T
     SCC iter.                  ...        0 min,  0.052 sec
     gradient                   ...        0 min,  0.056 sec
 * total energy  :  -138.8760764 Eh     change       -0.5494815E-02 Eh
   gradient norm :     0.0102871 Eh/α   predicted    -0.5472739E-02 (  -0.40%)
   displ. norm   :     0.9036037 α      lambda       -0.5401623E-02
   maximum displ.:     0.4124961 α      in ANC's #6, #11, #18, ...

........................................................................
.............................. CYCLE   20 ..............................
........................................................................

 iter      E             dE          RMSdq      gap      omega  full diag
   1   -141.1394395 -0.141139E+03  0.119E-01    1.40       0.0  T
   2   -141.1394533 -0.138493E-04  0.700E-02    1.40       1.0  T
   3   -141.1393842  0.690586E-04  0.272E-02    1.41       1.0  T
   4   -141.1394616 -0.773109E-04  0.504E-03    1.40       2.2  T
   5   -141.1394631 -0.158901E-05  0.216E-03    1.40       5.1  T
   6   -141.1394633 -0.108984E-06  0.103E-03    1.40      10.6  T
   7   -141.1394633 -0.393158E-07  0.372E-04    1.40      29.5  T
   8   -141.1394633 -0.659116E-08  0.178E-04    1.40      61.8  T
     SCC iter.                  ...        0 min,  0.052 sec
     gradient                   ...        0 min,  0.057 sec
 * total energy  :  -138.8809582 Eh     change       -0.4881841E-02 Eh
   gradient norm :     0.0113485 Eh/α   predicted    -0.4906029E-02 (   0.50%)
   displ. norm   :     0.9040972 α      lambda       -0.5032300E-02
   maximum displ.:     0.4363783 α      in ANC's #6, #11, #8, ...
 * RMSD in coord.:     1.6170882 α      energy gain  -0.6189109E+00 Eh

generating ANC from exact Hessian ...
Using Lindh-Hessian (1995)
 Shifting diagonal of input Hessian by    9.9402470174206215E-003
 Lowest  eigenvalues of input Hessian
    0.000000    0.000000    0.000000    0.000000    0.000000    0.000000
    0.010000    0.010020    0.010064    0.010195    0.010334    0.010482
    0.010606    0.010681    0.010895    0.011247    0.011323    0.011643
 Highest eigenvalues
    2.134583    2.156345    2.198311    2.228899    2.251415    2.341297


........................................................................
.............................. CYCLE   21 ..............................
........................................................................

 iter      E             dE          RMSdq      gap      omega  full diag
   1   -141.1478283 -0.141148E+03  0.119E-01    1.41       0.0  T
   2   -141.1478388 -0.104858E-04  0.702E-02    1.41       1.0  T
   3   -141.1477515  0.872546E-04  0.302E-02    1.41       1.0  T
   4   -141.1478482 -0.967009E-04  0.517E-03    1.41       2.1  T
   5   -141.1478500 -0.178278E-05  0.235E-03    1.41       4.7  T
   6   -141.1478502 -0.207997E-06  0.107E-03    1.41      10.2  T
   7   -141.1478502 -0.422336E-07  0.384E-04    1.41      28.6  T
   8   -141.1478502 -0.115755E-07  0.142E-04    1.41      77.2  T
     SCC iter.                  ...        0 min,  0.052 sec
     gradient                   ...        0 min,  0.057 sec
 * total energy  :  -138.8854438 Eh     change       -0.4485635E-02 Eh
   gradient norm :     0.0130549 Eh/α   predicted     0.0000000E+00 (-100.00%)
   displ. norm   :     0.3707314 α      lambda       -0.2074905E-02
   maximum displ.:     0.2358441 α      in ANC's #6, #10, #11, ...

........................................................................
.............................. CYCLE   22 ..............................
........................................................................

 iter      E             dE          RMSdq      gap      omega  full diag
   1   -141.1519698 -0.141152E+03  0.595E-02    1.42       0.0  T
   2   -141.1519729 -0.305776E-05  0.350E-02    1.42       1.0  T
   3   -141.1519635  0.934957E-05  0.104E-02    1.42       1.1  T
   4   -141.1519741 -0.105756E-04  0.249E-03    1.42       4.4  T
   5   -141.1519744 -0.355709E-06  0.116E-03    1.42       9.4  T
   6   -141.1519745 -0.391971E-07  0.496E-04    1.42      22.1  T
   7   -141.1519745 -0.113618E-07  0.192E-04    1.42      57.2  T
     SCC iter.                  ...        0 min,  0.046 sec
     gradient                   ...        0 min,  0.057 sec
 * total energy  :  -138.8873837 Eh     change       -0.1939837E-02 Eh
   gradient norm :     0.0063722 Eh/α   predicted    -0.1181384E-02 ( -39.10%)
   displ. norm   :     0.8022136 α      lambda       -0.3989256E-02
   maximum displ.:     0.4498452 α      in ANC's #6, #10, #11, ...

........................................................................
.............................. CYCLE   23 ..............................
........................................................................

 iter      E             dE          RMSdq      gap      omega  full diag
   1   -141.1562746 -0.141156E+03  0.127E-01    1.43       0.0  T
   2   -141.1562877 -0.130318E-04  0.744E-02    1.43       1.0  T
   3   -141.1562387  0.489409E-04  0.240E-02    1.44       1.0  T
   4   -141.1562945 -0.557459E-04  0.509E-03    1.43       2.2  T
   5   -141.1562959 -0.144919E-05  0.250E-03    1.43       4.4  T
   6   -141.1562961 -0.202748E-06  0.958E-04    1.43      11.5  T
   7   -141.1562962 -0.524689E-07  0.323E-04    1.43      34.0  T
     SCC iter.                  ...        0 min,  0.046 sec
     gradient                   ...        0 min,  0.057 sec
 * total energy  :  -138.8911271 Eh     change       -0.3743371E-02 Eh
   gradient norm :     0.0103010 Eh/α   predicted    -0.3278271E-02 ( -12.42%)
   displ. norm   :     0.9013434 α      lambda       -0.4126843E-02
   maximum displ.:     0.4996383 α      in ANC's #6, #10, #11, ...

........................................................................
.............................. CYCLE   24 ..............................
........................................................................

 iter      E             dE          RMSdq      gap      omega  full diag
   1   -141.1571097 -0.141157E+03  0.144E-01    1.44       0.0  T
   2   -141.1571250 -0.152769E-04  0.842E-02    1.44       1.0  T
   3   -141.1570645  0.605319E-04  0.266E-02    1.45       1.0  T
   4   -141.1571334 -0.688923E-04  0.547E-03    1.44       2.0  T
   5   -141.1571349 -0.156030E-05  0.284E-03    1.45       3.9  T
   6   -141.1571352 -0.304964E-06  0.106E-03    1.44      10.4  T
   7   -141.1571353 -0.525517E-07  0.390E-04    1.44      28.2  T
   8   -141.1571353 -0.132016E-07  0.158E-04    1.45      69.6  T
     SCC iter.                  ...        0 min,  0.052 sec
     gradient                   ...        0 min,  0.057 sec
 * total energy  :  -138.8950073 Eh     change       -0.3880247E-02 Eh
   gradient norm :     0.0140933 Eh/α   predicted    -0.3739787E-02 (  -3.62%)
   displ. norm   :     0.8953811 α      lambda       -0.3905739E-02
   maximum displ.:     0.5081590 α      in ANC's #6, #10, #11, ...

........................................................................
.............................. CYCLE   25 ..............................
........................................................................

 iter      E             dE          RMSdq      gap      omega  full diag
   1   -141.1602240 -0.141160E+03  0.144E-01    1.46       0.0  T
   2   -141.1602367 -0.126807E-04  0.843E-02    1.46       1.0  T
   3   -141.1601726  0.641301E-04  0.270E-02    1.46       1.0  T
   4   -141.1602452 -0.726132E-04  0.507E-03    1.45       2.2  T
   5   -141.1602464 -0.119461E-05  0.280E-03    1.46       3.9  T
   6   -141.1602467 -0.318839E-06  0.958E-04    1.46      11.5  T
   7   -141.1602468 -0.516984E-07  0.356E-04    1.46      30.9  T
     SCC iter.                  ...        0 min,  0.046 sec
     gradient                   ...        0 min,  0.057 sec
 * total energy  :  -138.8986121 Eh     change       -0.3604804E-02 Eh
   gradient norm :     0.0132575 Eh/α   predicted    -0.3518500E-02 (  -2.39%)
   displ. norm   :     0.8667611 α      lambda       -0.3563578E-02
   maximum displ.:     0.5113034 α      in ANC's #6, #10, #11, ...

........................................................................
.............................. CYCLE   26 ..............................
........................................................................

 iter      E             dE          RMSdq      gap      omega  full diag
   1   -141.1682401 -0.141168E+03  0.142E-01    1.48       0.0  T
   2   -141.1682515 -0.113474E-04  0.832E-02    1.47       1.0  T
   3   -141.1681819  0.696137E-04  0.278E-02    1.47       1.0  T
   4   -141.1682603 -0.784195E-04  0.486E-03    1.47       2.3  T
   5   -141.1682613 -0.100883E-05  0.279E-03    1.47       3.9  T
   6   -141.1682616 -0.347983E-06  0.960E-04    1.47      11.4  T
   7   -141.1682617 -0.574503E-07  0.328E-04    1.47      33.5  T
     SCC iter.                  ...        0 min,  0.046 sec
     gradient                   ...        0 min,  0.057 sec
 * total energy  :  -138.9018296 Eh     change       -0.3217453E-02 Eh
   gradient norm :     0.0096452 Eh/α   predicted    -0.3120410E-02 (  -3.02%)
   displ. norm   :     0.8746050 α      lambda       -0.3074967E-02
   maximum displ.:     0.5155212 α      in ANC's #6, #11, #10, ...

........................................................................
.............................. CYCLE   27 ..............................
........................................................................

 iter      E             dE          RMSdq      gap      omega  full diag
   1   -141.1722497 -0.141172E+03  0.146E-01    1.49       0.0  T
   2   -141.1722622 -0.124932E-04  0.855E-02    1.48       1.0  T
   3   -141.1721902  0.719520E-04  0.281E-02    1.49       1.0  T
   4   -141.1722711 -0.809048E-04  0.503E-03    1.48       2.2  T
   5   -141.1722722 -0.103801E-05  0.292E-03    1.48       3.8  T
   6   -141.1722726 -0.424144E-06  0.993E-04    1.48      11.1  T
   7   -141.1722726 -0.484062E-07  0.370E-04    1.48      29.6  T
     SCC iter.                  ...        0 min,  0.046 sec
     gradient                   ...        0 min,  0.057 sec
 * total energy  :  -138.9046210 Eh     change       -0.2791444E-02 Eh
   gradient norm :     0.0112410 Eh/α   predicted    -0.2713561E-02 (  -2.79%)
   displ. norm   :     0.8530294 α      lambda       -0.2846457E-02
   maximum displ.:     0.5162427 α      in ANC's #6, #9, #11, ...

........................................................................
.............................. CYCLE   28 ..............................
........................................................................

 iter      E             dE          RMSdq      gap      omega  full diag
   1   -141.1831250 -0.141183E+03  0.150E-01    1.51       0.0  T
   2   -141.1831431 -0.180493E-04  0.878E-02    1.50       1.0  T
   3   -141.1830607  0.823461E-04  0.301E-02    1.50       1.0  T
   4   -141.1831527 -0.920018E-04  0.593E-03    1.50       1.9  T
   5   -141.1831546 -0.191994E-05  0.323E-03    1.50       3.4  T
   6   -141.1831552 -0.553011E-06  0.131E-03    1.50       8.4  T
   7   -141.1831553 -0.683023E-07  0.430E-04    1.50      25.5  T
   8   -141.1831553 -0.124490E-07  0.163E-04    1.50      67.4  T
     SCC iter.                  ...        0 min,  0.052 sec
     gradient                   ...        0 min,  0.057 sec
 * total energy  :  -138.9070591 Eh     change       -0.2438077E-02 Eh
   gradient norm :     0.0106571 Eh/α   predicted    -0.2458854E-02 (   0.85%)
   displ. norm   :     0.8814331 α      lambda       -0.2584319E-02
   maximum displ.:     0.5152252 α      in ANC's #6, #11, #9, ...

........................................................................
.............................. CYCLE   29 ..............................
........................................................................

 iter      E             dE          RMSdq      gap      omega  full diag
   1   -141.1775787 -0.141178E+03  0.156E-01    1.52       0.0  T
   2   -141.1775983 -0.195934E-04  0.905E-02    1.51       1.0  T
   3   -141.1775316  0.666391E-04  0.276E-02    1.51       1.0  T
   4   -141.1776058 -0.741798E-04  0.648E-03    1.51       1.7  T
   5   -141.1776084 -0.263020E-05  0.317E-03    1.51       3.5  T
   6   -141.1776089 -0.432526E-06  0.140E-03    1.51       7.8  T
   7   -141.1776090 -0.784888E-07  0.462E-04    1.51      23.7  T
   8   -141.1776090 -0.152974E-07  0.172E-04    1.51      63.7  T
     SCC iter.                  ...        0 min,  0.053 sec
     gradient                   ...        0 min,  0.057 sec
 * total energy  :  -138.9091653 Eh     change       -0.2106227E-02 Eh
   gradient norm :     0.0129211 Eh/α   predicted    -0.2296071E-02 (   9.01%)
   displ. norm   :     0.7860833 α      lambda       -0.2026096E-02
   maximum displ.:     0.4743750 α      in ANC's #6, #9, #11, ...

........................................................................
.............................. CYCLE   30 ..............................
........................................................................

 iter      E             dE          RMSdq      gap      omega  full diag
   1   -141.1822755 -0.141182E+03  0.143E-01    1.53       0.0  T
   2   -141.1822890 -0.134315E-04  0.835E-02    1.52       1.0  T
   3   -141.1822188  0.701632E-04  0.273E-02    1.52       1.0  T
   4   -141.1822970 -0.782232E-04  0.520E-03    1.52       2.1  T
   5   -141.1822985 -0.142954E-05  0.286E-03    1.52       3.8  T
   6   -141.1822989 -0.430929E-06  0.107E-03    1.52      10.2  T
   7   -141.1822989 -0.540610E-07  0.376E-04    1.52      29.2  T
   8   -141.1822990 -0.844443E-08  0.152E-04    1.52      72.0  T
     SCC iter.                  ...        0 min,  0.053 sec
     gradient                   ...        0 min,  0.057 sec
 * total energy  :  -138.9109665 Eh     change       -0.1801223E-02 Eh
   gradient norm :     0.0094717 Eh/α   predicted    -0.1639041E-02 (  -9.00%)
   displ. norm   :     0.7859489 α      lambda       -0.1867333E-02
   maximum displ.:     0.4748037 α      in ANC's #6, #9, #11, ...

........................................................................
.............................. CYCLE   31 ..............................
........................................................................

 iter      E             dE          RMSdq      gap      omega  full diag
   1   -141.1928834 -0.141193E+03  0.146E-01    1.54       0.0  T
   2   -141.1928967 -0.133351E-04  0.851E-02    1.53       1.0  T
   3   -141.1928388  0.579670E-04  0.254E-02    1.53       1.0  T
   4   -141.1929039 -0.651060E-04  0.500E-03    1.52       2.2  T
   5   -141.1929051 -0.124995E-05  0.282E-03    1.53       3.9  T
   6   -141.1929055 -0.426694E-06  0.106E-03    1.53      10.3  T
   7   -141.1929056 -0.576412E-07  0.369E-04    1.53      29.7  T
   8   -141.1929056 -0.830457E-08  0.151E-04    1.53      72.5  T
     SCC iter.                  ...        0 min,  0.054 sec
     gradient                   ...        0 min,  0.057 sec
 * total energy  :  -138.9125760 Eh     change       -0.1609483E-02 Eh
   gradient norm :     0.0059722 Eh/α   predicted    -0.1510409E-02 (  -6.16%)
   displ. norm   :     0.8665687 α      lambda       -0.1623651E-02
   maximum displ.:     0.5138209 α      in ANC's #6, #9, #11, ...

........................................................................
.............................. CYCLE   32 ..............................
........................................................................

 iter      E             dE          RMSdq      gap      omega  full diag
   1   -141.1844408 -0.141184E+03  0.164E-01    1.53       0.0  T
   2   -141.1844582 -0.173573E-04  0.954E-02    1.52       1.0  T
   3   -141.1844015  0.566240E-04  0.258E-02    1.52       1.0  T
   4   -141.1844652 -0.636854E-04  0.602E-03    1.52       1.8  T
   5   -141.1844675 -0.230666E-05  0.310E-03    1.52       3.5  T
   6   -141.1844680 -0.447984E-06  0.111E-03    1.52       9.9  T
   7   -141.1844680 -0.592822E-07  0.407E-04    1.52      26.9  T
   8   -141.1844680 -0.104255E-07  0.171E-04    1.52      64.4  T
     SCC iter.                  ...        0 min,  0.053 sec
     gradient                   ...        0 min,  0.057 sec
 * total energy  :  -138.9139230 Eh     change       -0.1346982E-02 Eh
   gradient norm :     0.0099136 Eh/α   predicted    -0.1421466E-02 (   5.53%)
   displ. norm   :     0.7744110 α      lambda       -0.1490166E-02
   maximum displ.:     0.4567160 α      in ANC's #6, #11, #9, ...

........................................................................
.............................. CYCLE   33 ..............................
........................................................................

 iter      E             dE          RMSdq      gap      omega  full diag
   1   -141.1930539 -0.141193E+03  0.146E-01    1.56       0.0  T
   2   -141.1930694 -0.155027E-04  0.853E-02    1.54       1.0  T
   3   -141.1930371  0.323550E-04  0.203E-02    1.54       1.0  T
   4   -141.1930752 -0.381751E-04  0.432E-03    1.54       2.5  T
   5   -141.1930759 -0.637543E-06  0.252E-03    1.54       4.4  T
   6   -141.1930762 -0.329078E-06  0.111E-03    1.54       9.8  T
   7   -141.1930763 -0.744223E-07  0.371E-04    1.54      29.6  T
   8   -141.1930763 -0.965375E-08  0.146E-04    1.54      75.2  T
     SCC iter.                  ...        0 min,  0.053 sec
     gradient                   ...        0 min,  0.057 sec
 * total energy  :  -138.9151232 Eh     change       -0.1200215E-02 Eh
   gradient norm :     0.0084763 Eh/α   predicted    -0.1191920E-02 (  -0.69%)
   displ. norm   :     0.7768859 α      lambda       -0.1294953E-02
   maximum displ.:     0.4532017 α      in ANC's #6, #11, #9, ...

........................................................................
.............................. CYCLE   34 ..............................
........................................................................

 iter      E             dE          RMSdq      gap      omega  full diag
   1   -141.1964333 -0.141196E+03  0.147E-01    1.53       0.0  T
   2   -141.1964484 -0.151165E-04  0.857E-02    1.53       1.0  T
   3   -141.1964335  0.149085E-04  0.151E-02    1.53       1.0  T
   4   -141.1964517 -0.182074E-04  0.498E-03    1.53       2.2  T
   5   -141.1964531 -0.142193E-05  0.248E-03    1.53       4.4  T
   6   -141.1964534 -0.247761E-06  0.108E-03    1.53      10.2  T
   7   -141.1964535 -0.733584E-07  0.327E-04    1.53      33.5  T
   8   -141.1964535 -0.654063E-08  0.152E-04    1.53      72.2  T
     SCC iter.                  ...        0 min,  0.054 sec
     gradient                   ...        0 min,  0.057 sec
 * total energy  :  -138.9160919 Eh     change       -0.9687309E-03 Eh
   gradient norm :     0.0112331 Eh/α   predicted    -0.1038264E-02 (   7.18%)
   displ. norm   :     0.7668616 α      lambda       -0.1090539E-02
   maximum displ.:     0.4457814 α      in ANC's #6, #11, #9, ...

........................................................................
.............................. CYCLE   35 ..............................
........................................................................

 iter      E             dE          RMSdq      gap      omega  full diag
   1   -141.1901712 -0.141190E+03  0.144E-01    1.54       0.0  T
   2   -141.1901861 -0.149237E-04  0.840E-02    1.53       1.0  T
   3   -141.1901660  0.200657E-04  0.170E-02    1.53       1.0  T
   4   -141.1901906 -0.246023E-04  0.456E-03    1.53       2.4  T
   5   -141.1901915 -0.896474E-06  0.254E-03    1.53       4.3  T
   6   -141.1901918 -0.316964E-06  0.981E-04    1.53      11.2  T
   7   -141.1901919 -0.602812E-07  0.337E-04    1.53      32.5  T
     SCC iter.                  ...        0 min,  0.047 sec
     gradient                   ...        0 min,  0.057 sec
 * total energy  :  -138.9169548 Eh     change       -0.8628389E-03 Eh
   gradient norm :     0.0088115 Eh/α   predicted    -0.8659323E-03 (   0.36%)
   displ. norm   :     0.6781489 α      lambda       -0.1039712E-02
   maximum displ.:     0.3650821 α      in ANC's #6, #11, #3, ...

........................................................................
.............................. CYCLE   36 ..............................
........................................................................

 iter      E             dE          RMSdq      gap      omega  full diag
   1   -141.2005552 -0.141201E+03  0.122E-01    1.56       0.0  T
   2   -141.2005681 -0.128715E-04  0.713E-02    1.55       1.0  T
   3   -141.2005438  0.243049E-04  0.180E-02    1.55       1.0  T
   4   -141.2005723 -0.284661E-04  0.411E-03    1.55       2.7  T
   5   -141.2005729 -0.677056E-06  0.247E-03    1.55       4.5  T
   6   -141.2005733 -0.393774E-06  0.935E-04    1.55      11.7  T
   7   -141.2005734 -0.329607E-07  0.297E-04    1.55      36.9  T
     SCC iter.                  ...        0 min,  0.047 sec
     gradient                   ...        0 min,  0.057 sec
 * total energy  :  -138.9177372 Eh     change       -0.7824140E-03 Eh
   gradient norm :     0.0112726 Eh/α   predicted    -0.7589336E-03 (  -3.00%)
   displ. norm   :     0.7759302 α      lambda       -0.9228847E-03
   maximum displ.:     0.4480636 α      in ANC's #6, #3, #11, ...

........................................................................
.............................. CYCLE   37 ..............................
........................................................................

 iter      E             dE          RMSdq      gap      omega  full diag
   1   -141.1941299 -0.141194E+03  0.146E-01    1.52       0.0  T
   2   -141.1941460 -0.160898E-04  0.852E-02    1.53       1.0  T
   3   -141.1941327  0.132898E-04  0.152E-02    1.52       1.0  T
   4   -141.1941498 -0.170787E-04  0.520E-03    1.53       2.1  T
   5   -141.1941511 -0.134521E-05  0.262E-03    1.53       4.2  T
   6   -141.1941514 -0.271113E-06  0.859E-04    1.53      12.8  T
   7   -141.1941514 -0.406380E-07  0.295E-04    1.53      37.3  T
     SCC iter.                  ...        0 min,  0.047 sec
     gradient                   ...        0 min,  0.057 sec
 * total energy  :  -138.9183908 Eh     change       -0.6535638E-03 Eh
   gradient norm :     0.0125389 Eh/α   predicted    -0.7392668E-03 (  13.11%)
   displ. norm   :     0.6246790 α      lambda       -0.9060603E-03
   maximum displ.:     0.2992614 α      in ANC's #6, #3, #1, ...

........................................................................
.............................. CYCLE   38 ..............................
........................................................................

 iter      E             dE          RMSdq      gap      omega  full diag
   1   -141.1989364 -0.141199E+03  0.118E-01    1.52       0.0  T
   2   -141.1989482 -0.118346E-04  0.686E-02    1.52       1.0  T
   3   -141.1989161  0.321309E-04  0.195E-02    1.52       1.0  T
   4   -141.1989521 -0.360120E-04  0.505E-03    1.52       2.2  T
   5   -141.1989539 -0.181718E-05  0.234E-03    1.52       4.7  T
   6   -141.1989541 -0.224821E-06  0.933E-04    1.52      11.8  T
   7   -141.1989542 -0.411121E-07  0.266E-04    1.52      41.3  T
     SCC iter.                  ...        0 min,  0.047 sec
     gradient                   ...        0 min,  0.057 sec
 * total energy  :  -138.9189776 Eh     change       -0.5868642E-03 Eh
   gradient norm :     0.0123867 Eh/α   predicted    -0.6298190E-03 (   7.32%)
   displ. norm   :     0.5967473 α      lambda       -0.9303702E-03
   maximum displ.:     0.2816032 α      in ANC's #6, #1, #3, ...

........................................................................
.............................. CYCLE   39 ..............................
........................................................................

 iter      E             dE          RMSdq      gap      omega  full diag
   1   -141.1966644 -0.141197E+03  0.108E-01    1.52       0.0  T
   2   -141.1966798 -0.154195E-04  0.628E-02    1.52       1.0  T
   3   -141.1966383  0.415549E-04  0.218E-02    1.52       1.0  T
   4   -141.1966833 -0.449994E-04  0.593E-03    1.52       1.9  T
   5   -141.1966864 -0.309037E-05  0.230E-03    1.52       4.8  T
   6   -141.1966866 -0.179929E-06  0.112E-03    1.52       9.8  T
   7   -141.1966866 -0.467161E-07  0.305E-04    1.52      36.0  T
   8   -141.1966866 -0.597586E-08  0.138E-04    1.52      79.8  T
     SCC iter.                  ...        0 min,  0.053 sec
     gradient                   ...        0 min,  0.057 sec
 * total energy  :  -138.9194157 Eh     change       -0.4380794E-03 Eh
   gradient norm :     0.0149927 Eh/α   predicted    -0.6308473E-03 (  44.00%)
   displ. norm   :     0.4722193 α      lambda       -0.9844110E-03
   maximum displ.:     0.1775880 α      in ANC's #1, #6, #2, ...

........................................................................
.............................. CYCLE   40 ..............................
........................................................................

 iter      E             dE          RMSdq      gap      omega  full diag
   1   -141.2062065 -0.141206E+03  0.989E-02    1.50       0.0  T
   2   -141.2062219 -0.153792E-04  0.575E-02    1.51       1.0  T
   3   -141.2061576  0.642810E-04  0.271E-02    1.51       1.0  T
   4   -141.2062287 -0.711022E-04  0.597E-03    1.51       1.8  T
   5   -141.2062318 -0.300470E-05  0.232E-03    1.51       4.7  T
   6   -141.2062319 -0.180721E-06  0.103E-03    1.51      10.7  T
   7   -141.2062320 -0.274489E-07  0.347E-04    1.51      31.6  T
   8   -141.2062320 -0.958312E-08  0.137E-04    1.51      80.0  T
     SCC iter.                  ...        0 min,  0.053 sec
     gradient                   ...        0 min,  0.057 sec
 * total energy  :  -138.9199432 Eh     change       -0.5274557E-03 Eh
   gradient norm :     0.0130234 Eh/α   predicted    -0.6019682E-03 (  14.13%)
   displ. norm   :     0.5275135 α      lambda       -0.9048952E-03
   maximum displ.:     0.2267535 α      in ANC's #6, #7, #1, ...

........................................................................
.............................. CYCLE   41 ..............................
........................................................................

 iter      E             dE          RMSdq      gap      omega  full diag
   1   -141.1988565 -0.141199E+03  0.116E-01    1.51       0.0  T
   2   -141.1988727 -0.162671E-04  0.678E-02    1.51       1.0  T
   3   -141.1988103  0.623947E-04  0.273E-02    1.51       1.0  T
   4   -141.1988798 -0.694513E-04  0.628E-03    1.51       1.7  T
   5   -141.1988829 -0.311307E-05  0.263E-03    1.51       4.2  T
   6   -141.1988831 -0.251145E-06  0.102E-03    1.51      10.8  T
   7   -141.1988832 -0.462073E-07  0.316E-04    1.51      34.7  T
   8   -141.1988832 -0.627938E-08  0.110E-04    1.51      99.4  T
     SCC iter.                  ...        0 min,  0.053 sec
     gradient                   ...        0 min,  0.057 sec
 * total energy  :  -138.9202953 Eh     change       -0.3521804E-03 Eh
   gradient norm :     0.0162775 Eh/α   predicted    -0.5783519E-03 (  64.22%)
   displ. norm   :     0.3401018 α      lambda       -0.8567166E-03
   maximum displ.:     0.1404960 α      in ANC's #1, #2, #3, ...

........................................................................
.............................. CYCLE   42 ..............................
........................................................................

 iter      E             dE          RMSdq      gap      omega  full diag
   1   -141.2028631 -0.141203E+03  0.739E-02    1.48       0.0  T
   2   -141.2028732 -0.101445E-04  0.434E-02    1.49       1.0  T
   3   -141.2028314  0.418100E-04  0.226E-02    1.49       1.0  T
   4   -141.2028790 -0.475886E-04  0.536E-03    1.50       2.0  T
   5   -141.2028819 -0.293159E-05  0.188E-03    1.50       5.8  T
   6   -141.2028821 -0.133492E-06  0.830E-04    1.50      13.2  T
   7   -141.2028821 -0.216081E-07  0.303E-04    1.50      36.3  T
     SCC iter.                  ...        0 min,  0.047 sec
     gradient                   ...        0 min,  0.057 sec
 * total energy  :  -138.9207379 Eh     change       -0.4425314E-03 Eh
   gradient norm :     0.0129152 Eh/α   predicted    -0.4779121E-03 (   8.00%)
   displ. norm   :     0.4799354 α      lambda       -0.9366307E-03
   maximum displ.:     0.2012203 α      in ANC's #1, #2, #7, ...
 * RMSD in coord.:     1.5343270 α      energy gain  -0.3977966E-01 Eh

generating ANC from exact Hessian ...
Using Lindh-Hessian (1995)
 Shifting diagonal of input Hessian by    9.9384279995523069E-003
 Lowest  eigenvalues of input Hessian
    0.000000    0.000000    0.000000    0.000000    0.000000    0.000000
    0.010000    0.010016    0.010059    0.010235    0.010307    0.010523
    0.010672    0.010794    0.010948    0.011007    0.011360    0.011595
 Highest eigenvalues
    2.133991    2.166877    2.193187    2.247376    2.253931    2.346146


........................................................................
.............................. CYCLE   43 ..............................
........................................................................

 iter      E             dE          RMSdq      gap      omega  full diag
   1   -141.2015508 -0.141202E+03  0.107E-01    1.49       0.0  T
   2   -141.2015655 -0.146847E-04  0.625E-02    1.50       1.0  T
   3   -141.2015041  0.613913E-04  0.265E-02    1.49       1.0  T
   4   -141.2015725 -0.684267E-04  0.590E-03    1.50       1.9  T
   5   -141.2015755 -0.293666E-05  0.248E-03    1.50       4.4  T
   6   -141.2015757 -0.211414E-06  0.102E-03    1.50      10.7  T
   7   -141.2015757 -0.474413E-07  0.353E-04    1.50      31.1  T
   8   -141.2015757 -0.905186E-08  0.134E-04    1.50      81.9  T
     SCC iter.                  ...        0 min,  0.053 sec
     gradient                   ...        0 min,  0.057 sec
 * total energy  :  -138.9211253 Eh     change       -0.3874008E-03 Eh
   gradient norm :     0.0161572 Eh/α   predicted     0.0000000E+00 (-100.00%)
   displ. norm   :     0.1191388 α      lambda       -0.5392297E-03
   maximum displ.:     0.0610693 α      in ANC's #7, #2, #20, ...

........................................................................
.............................. CYCLE   44 ..............................
........................................................................

 iter      E             dE          RMSdq      gap      omega  full diag
   1   -141.2034816 -0.141203E+03  0.346E-02    1.50       0.0  T
   2   -141.2034835 -0.193339E-05  0.201E-02    1.49       1.0  T
   3   -141.2034812  0.235943E-05  0.592E-03    1.50       1.9  T
   4   -141.2034839 -0.267755E-05  0.176E-03    1.50       6.3  T
   5   -141.2034841 -0.232415E-06  0.742E-04    1.50      14.8  T
   6   -141.2034841 -0.162357E-07  0.405E-04    1.50      27.1  T
     SCC iter.                  ...        0 min,  0.041 sec
     gradient                   ...        0 min,  0.057 sec
 * total energy  :  -138.9215145 Eh     change       -0.3892669E-03 Eh
   gradient norm :     0.0054475 Eh/α   predicted    -0.2734447E-03 ( -29.75%)
   displ. norm   :     0.2216758 α      lambda       -0.3807124E-03
   maximum displ.:     0.1249690 α      in ANC's #7, #2, #9, ...

........................................................................
.............................. CYCLE   45 ..............................
........................................................................

 iter      E             dE          RMSdq      gap      omega  full diag
   1   -141.2044724 -0.141204E+03  0.529E-02    1.50       0.0  T
   2   -141.2044745 -0.208392E-05  0.308E-02    1.50       1.0  T
   3   -141.2044700  0.454482E-05  0.728E-03    1.50       1.5  T
   4   -141.2044752 -0.522562E-05  0.192E-03    1.50       5.7  T
   5   -141.2044754 -0.221801E-06  0.955E-04    1.50      11.5  T
   6   -141.2044755 -0.334287E-07  0.420E-04    1.50      26.2  T
     SCC iter.                  ...        0 min,  0.039 sec
     gradient                   ...        0 min,  0.057 sec
 * total energy  :  -138.9217940 Eh     change       -0.2794494E-03 Eh
   gradient norm :     0.0053253 Eh/α   predicted    -0.1997356E-03 ( -28.53%)
   displ. norm   :     0.3062694 α      lambda       -0.3354938E-03
   maximum displ.:     0.1695672 α      in ANC's #7, #2, #9, ...

........................................................................
.............................. CYCLE   46 ..............................
........................................................................

 iter      E             dE          RMSdq      gap      omega  full diag
   1   -141.2039128 -0.141204E+03  0.712E-02    1.50       0.0  T
   2   -141.2039155 -0.271001E-05  0.415E-02    1.50       1.0  T
   3   -141.2039096  0.595712E-05  0.824E-03    1.50       1.3  T
   4   -141.2039167 -0.709705E-05  0.217E-03    1.50       5.0  T
   5   -141.2039168 -0.174464E-06  0.120E-03    1.50       9.2  T
   6   -141.2039169 -0.730938E-07  0.367E-04    1.50      29.9  T
   7   -141.2039169 -0.990113E-08  0.126E-04    1.50      87.3  T
     SCC iter.                  ...        0 min,  0.047 sec
     gradient                   ...        0 min,  0.057 sec
 * total energy  :  -138.9220783 Eh     change       -0.2842718E-03 Eh
   gradient norm :     0.0095800 Eh/α   predicted    -0.1834818E-03 ( -35.46%)
   displ. norm   :     0.4715711 α      lambda       -0.4939945E-03
   maximum displ.:     0.2557563 α      in ANC's #7, #2, #9, ...

........................................................................
.............................. CYCLE   47 ..............................
........................................................................

 iter      E             dE          RMSdq      gap      omega  full diag
   1   -141.2015488 -0.141202E+03  0.110E-01    1.50       0.0  T
   2   -141.2015552 -0.641417E-05  0.640E-02    1.50       1.0  T
   3   -141.2015431  0.121349E-04  0.120E-02    1.50       1.0  T
   4   -141.2015579 -0.147764E-04  0.333E-03    1.50       3.3  T
   5   -141.2015582 -0.364903E-06  0.183E-03    1.50       6.0  T
   6   -141.2015584 -0.188005E-06  0.466E-04    1.50      23.6  T
   7   -141.2015584 -0.149229E-07  0.174E-04    1.50      63.0  T
     SCC iter.                  ...        0 min,  0.046 sec
     gradient                   ...        0 min,  0.057 sec
 * total energy  :  -138.9225002 Eh     change       -0.4219202E-03 Eh
   gradient norm :     0.0104291 Eh/α   predicted    -0.3019256E-03 ( -28.44%)
   displ. norm   :     0.5551342 α      lambda       -0.5607716E-03
   maximum displ.:     0.3033614 α      in ANC's #7, #2, #9, ...

........................................................................
.............................. CYCLE   48 ..............................
........................................................................

 iter      E             dE          RMSdq      gap      omega  full diag
   1   -141.1990409 -0.141199E+03  0.129E-01    1.50       0.0  T
   2   -141.1990502 -0.929595E-05  0.749E-02    1.50       1.0  T
   3   -141.1990350  0.152346E-04  0.139E-02    1.49       1.0  T
   4   -141.1990539 -0.188496E-04  0.395E-03    1.50       2.8  T
   5   -141.1990544 -0.517428E-06  0.219E-03    1.50       5.0  T
   6   -141.1990546 -0.281297E-06  0.527E-04    1.50      20.8  T
   7   -141.1990547 -0.170561E-07  0.203E-04    1.50      54.0  T
     SCC iter.                  ...        0 min,  0.046 sec
     gradient                   ...        0 min,  0.057 sec
 * total energy  :  -138.9229540 Eh     change       -0.4537710E-03 Eh
   gradient norm :     0.0082357 Eh/α   predicted    -0.3667950E-03 ( -19.17%)
   displ. norm   :     0.5186597 α      lambda       -0.4857106E-03
   maximum displ.:     0.2886734 α      in ANC's #7, #2, #9, ...

........................................................................
.............................. CYCLE   49 ..............................
........................................................................

 iter      E             dE          RMSdq      gap      omega  full diag
   1   -141.1994900 -0.141199E+03  0.117E-01    1.49       0.0  T
   2   -141.1994980 -0.796210E-05  0.682E-02    1.49       1.0  T
   3   -141.1994857  0.122197E-04  0.128E-02    1.49       1.0  T
   4   -141.1995011 -0.153550E-04  0.355E-03    1.49       3.1  T
   5   -141.1995014 -0.333662E-06  0.205E-03    1.49       5.4  T
   6   -141.1995017 -0.268959E-06  0.469E-04    1.49      23.4  T
   7   -141.1995017 -0.132130E-07  0.183E-04    1.49      60.0  T
     SCC iter.                  ...        0 min,  0.047 sec
     gradient                   ...        0 min,  0.057 sec
 * total energy  :  -138.9233399 Eh     change       -0.3859252E-03 Eh
   gradient norm :     0.0066767 Eh/α   predicted    -0.3081895E-03 ( -20.14%)
   displ. norm   :     0.4917037 α      lambda       -0.4322572E-03
   maximum displ.:     0.2820019 α      in ANC's #2, #7, #9, ...

........................................................................
.............................. CYCLE   50 ..............................
........................................................................

 iter      E             dE          RMSdq      gap      omega  full diag
   1   -141.2022742 -0.141202E+03  0.107E-01    1.49       0.0  T
   2   -141.2022808 -0.662262E-05  0.622E-02    1.49       1.0  T
   3   -141.2022705  0.102560E-04  0.118E-02    1.49       1.0  T
   4   -141.2022836 -0.130081E-04  0.312E-03    1.49       3.5  T
   5   -141.2022837 -0.156689E-06  0.191E-03    1.49       5.7  T
   6   -141.2022840 -0.264388E-06  0.403E-04    1.49      27.2  T
   7   -141.2022840 -0.948290E-08  0.166E-04    1.49      66.2  T
     SCC iter.                  ...        0 min,  0.047 sec
     gradient                   ...        0 min,  0.057 sec
 * total energy  :  -138.9236947 Eh     change       -0.3548613E-03 Eh
   gradient norm :     0.0070368 Eh/α   predicted    -0.2683828E-03 ( -24.37%)
   displ. norm   :     0.5517960 α      lambda       -0.4300681E-03
   maximum displ.:     0.3286473 α      in ANC's #2, #7, #9, ...

........................................................................
.............................. CYCLE   51 ..............................
........................................................................

 iter      E             dE          RMSdq      gap      omega  full diag
   1   -141.2035669 -0.141204E+03  0.117E-01    1.48       0.0  T
   2   -141.2035748 -0.786505E-05  0.683E-02    1.48       1.0  T
   3   -141.2035624  0.123527E-04  0.129E-02    1.48       1.0  T
   4   -141.2035781 -0.157305E-04  0.332E-03    1.48       3.3  T
   5   -141.2035783 -0.105868E-06  0.209E-03    1.48       5.3  T
   6   -141.2035786 -0.333718E-06  0.434E-04    1.48      25.3  T
   7   -141.2035786 -0.104457E-07  0.192E-04    1.48      57.3  T
     SCC iter.                  ...        0 min,  0.047 sec
     gradient                   ...        0 min,  0.057 sec
 * total energy  :  -138.9240600 Eh     change       -0.3652204E-03 Eh
   gradient norm :     0.0071729 Eh/α   predicted    -0.2805089E-03 ( -23.19%)
   displ. norm   :     0.5699805 α      lambda       -0.4505643E-03
   maximum displ.:     0.3610367 α      in ANC's #2, #7, #9, ...

........................................................................
.............................. CYCLE   52 ..............................
........................................................................

 iter      E             dE          RMSdq      gap      omega  full diag
   1   -141.2074492 -0.141207E+03  0.115E-01    1.47       0.0  T
   2   -141.2074571 -0.793832E-05  0.670E-02    1.48       1.0  T
   3   -141.2074438  0.133115E-04  0.133E-02    1.48       1.0  T
   4   -141.2074607 -0.168727E-04  0.309E-03    1.48       3.5  T
   5   -141.2074608 -0.881950E-07  0.186E-03    1.48       5.9  T
   6   -141.2074610 -0.221432E-06  0.560E-04    1.48      19.6  T
   7   -141.2074610 -0.207010E-07  0.211E-04    1.48      52.1  T
     SCC iter.                  ...        0 min,  0.047 sec
     gradient                   ...        0 min,  0.057 sec
 * total energy  :  -138.9244297 Eh     change       -0.3696935E-03 Eh
   gradient norm :     0.0063491 Eh/α   predicted    -0.2984747E-03 ( -19.26%)
   displ. norm   :     0.6917662 α      lambda       -0.4334104E-03
   maximum displ.:     0.4283015 α      in ANC's #2, #7, #9, ...

........................................................................
.............................. CYCLE   53 ..............................
........................................................................

 iter      E             dE          RMSdq      gap      omega  full diag
   1   -141.2006619 -0.141201E+03  0.144E-01    1.46       0.0  T
   2   -141.2006741 -0.121270E-04  0.840E-02    1.47       1.0  T
   3   -141.2006542  0.198717E-04  0.165E-02    1.47       1.0  T
   4   -141.2006795 -0.252827E-04  0.397E-03    1.47       2.8  T
   5   -141.2006797 -0.193008E-06  0.237E-03    1.47       4.6  T
   6   -141.2006800 -0.350199E-06  0.653E-04    1.47      16.8  T
   7   -141.2006801 -0.300336E-07  0.252E-04    1.47      43.5  T
     SCC iter.                  ...        0 min,  0.047 sec
     gradient                   ...        0 min,  0.057 sec
 * total energy  :  -138.9247428 Eh     change       -0.3131644E-03 Eh
   gradient norm :     0.0079523 Eh/α   predicted    -0.3204081E-03 (   2.31%)
   displ. norm   :     0.4795899 α      lambda       -0.4535610E-03
   maximum displ.:     0.3301695 α      in ANC's #2, #7, #9, ...

........................................................................
.............................. CYCLE   54 ..............................
........................................................................

 iter      E             dE          RMSdq      gap      omega  full diag
   1   -141.2074003 -0.141207E+03  0.865E-02    1.46       0.0  T
   2   -141.2074060 -0.565570E-05  0.506E-02    1.47       1.0  T
   3   -141.2073837  0.222625E-04  0.160E-02    1.47       1.0  T
   4   -141.2074095 -0.257864E-04  0.271E-03    1.47       4.0  T
   5   -141.2074098 -0.317969E-06  0.151E-03    1.47       7.3  T
   6   -141.2074099 -0.827934E-07  0.710E-04    1.47      15.5  T
   7   -141.2074099 -0.390628E-07  0.222E-04    1.47      49.4  T
     SCC iter.                  ...        0 min,  0.047 sec
     gradient                   ...        0 min,  0.057 sec
 * total energy  :  -138.9250684 Eh     change       -0.3255561E-03 Eh
   gradient norm :     0.0051403 Eh/α   predicted    -0.2789473E-03 ( -14.32%)
   displ. norm   :     0.5983025 α      lambda       -0.3436353E-03
   maximum displ.:     0.4077463 α      in ANC's #2, #7, #9, ...

........................................................................
.............................. CYCLE   55 ..............................
........................................................................

 iter      E             dE          RMSdq      gap      omega  full diag
   1   -141.2054815 -0.141205E+03  0.114E-01    1.46       0.0  T
   2   -141.2054892 -0.775909E-05  0.662E-02    1.46       1.0  T
   3   -141.2054630  0.261940E-04  0.179E-02    1.46       1.0  T
   4   -141.2054938 -0.307312E-04  0.338E-03    1.46       3.2  T
   5   -141.2054941 -0.303932E-06  0.205E-03    1.46       5.4  T
   6   -141.2054943 -0.217180E-06  0.709E-04    1.46      15.5  T
   7   -141.2054943 -0.418066E-07  0.222E-04    1.46      49.4  T
     SCC iter.                  ...        0 min,  0.046 sec
     gradient                   ...        0 min,  0.057 sec
 * total energy  :  -138.9253535 Eh     change       -0.2851731E-03 Eh
   gradient norm :     0.0061639 Eh/α   predicted    -0.2333255E-03 ( -18.18%)
   displ. norm   :     0.5024752 α      lambda       -0.3513897E-03
   maximum displ.:     0.3601402 α      in ANC's #2, #7, #8, ...

........................................................................
.............................. CYCLE   56 ..............................
........................................................................

 iter      E             dE          RMSdq      gap      omega  full diag
   1   -141.2065305 -0.141207E+03  0.882E-02    1.46       0.0  T
   2   -141.2065358 -0.531360E-05  0.515E-02    1.46       1.0  T
   3   -141.2064993  0.364494E-04  0.198E-02    1.46       1.0  T
   4   -141.2065402 -0.408148E-04  0.338E-03    1.46       3.2  T
   5   -141.2065409 -0.793025E-06  0.168E-03    1.46       6.5  T
   6   -141.2065411 -0.111146E-06  0.659E-04    1.46      16.6  T
   7   -141.2065411 -0.251245E-07  0.211E-04    1.46      51.9  T
     SCC iter.                  ...        0 min,  0.046 sec
     gradient                   ...        0 min,  0.057 sec
 * total energy  :  -138.9256545 Eh     change       -0.3009866E-03 Eh
   gradient norm :     0.0055214 Eh/α   predicted    -0.2200571E-03 ( -26.89%)
   displ. norm   :     0.5902152 α      lambda       -0.4131235E-03
   maximum displ.:     0.4242927 α      in ANC's #2, #7, #8, ...

........................................................................
.............................. CYCLE   57 ..............................
........................................................................

 iter      E             dE          RMSdq      gap      omega  full diag
   1   -141.2066737 -0.141207E+03  0.103E-01    1.45       0.0  T
   2   -141.2066805 -0.686756E-05  0.602E-02    1.45       1.0  T
   3   -141.2066230  0.575180E-04  0.243E-02    1.45       1.0  T
   4   -141.2066870 -0.640256E-04  0.410E-03    1.45       2.7  T
   5   -141.2066883 -0.123237E-05  0.196E-03    1.45       5.6  T
   6   -141.2066884 -0.130724E-06  0.754E-04    1.45      14.5  T
   7   -141.2066884 -0.321507E-07  0.246E-04    1.45      44.6  T
     SCC iter.                  ...        0 min,  0.046 sec
     gradient                   ...        0 min,  0.057 sec
 * total energy  :  -138.9260030 Eh     change       -0.3484471E-03 Eh
   gradient norm :     0.0069025 Eh/α   predicted    -0.2785229E-03 ( -20.07%)
   displ. norm   :     0.6037993 α      lambda       -0.4383600E-03
   maximum displ.:     0.4419593 α      in ANC's #2, #8, #7, ...

........................................................................
.............................. CYCLE   58 ..............................
........................................................................

 iter      E             dE          RMSdq      gap      omega  full diag
   1   -141.2074418 -0.141207E+03  0.100E-01    1.44       0.0  T
   2   -141.2074490 -0.722338E-05  0.587E-02    1.44       1.0  T
   3   -141.2073873  0.616755E-04  0.253E-02    1.44       1.0  T
   4   -141.2074559 -0.685354E-04  0.427E-03    1.44       2.6  T
   5   -141.2074573 -0.148560E-05  0.198E-03    1.44       5.5  T
   6   -141.2074575 -0.135259E-06  0.798E-04    1.44      13.7  T
   7   -141.2074575 -0.278143E-07  0.275E-04    1.44      40.0  T
     SCC iter.                  ...        0 min,  0.046 sec
     gradient                   ...        0 min,  0.057 sec
 * total energy  :  -138.9263505 Eh     change       -0.3475422E-03 Eh
   gradient norm :     0.0076271 Eh/α   predicted    -0.2990898E-03 ( -13.94%)
   displ. norm   :     0.6550440 α      lambda       -0.3859312E-03
   maximum displ.:     0.4804891 α      in ANC's #2, #7, #8, ...

........................................................................
.............................. CYCLE   59 ..............................
........................................................................

 iter      E             dE          RMSdq      gap      omega  full diag
   1   -141.2033469 -0.141203E+03  0.111E-01    1.43       0.0  T
   2   -141.2033553 -0.843819E-05  0.650E-02    1.43       1.0  T
   3   -141.2033195  0.358251E-04  0.206E-02    1.43       1.0  T
   4   -141.2033602 -0.406805E-04  0.398E-03    1.43       2.8  T
   5   -141.2033611 -0.944813E-06  0.214E-03    1.43       5.1  T
   6   -141.2033613 -0.197752E-06  0.799E-04    1.43      13.7  T
   7   -141.2033613 -0.419026E-07  0.251E-04    1.43      43.8  T
     SCC iter.                  ...        0 min,  0.047 sec
     gradient                   ...        0 min,  0.057 sec
 * total energy  :  -138.9266475 Eh     change       -0.2970129E-03 Eh
   gradient norm :     0.0081639 Eh/α   predicted    -0.2757655E-03 (  -7.15%)
   displ. norm   :     0.5220106 α      lambda       -0.3671121E-03
   maximum displ.:     0.3892373 α      in ANC's #2, #8, #13, ...

........................................................................
.............................. CYCLE   60 ..............................
........................................................................

 iter      E             dE          RMSdq      gap      omega  full diag
   1   -141.2069327 -0.141207E+03  0.817E-02    1.42       0.0  T
   2   -141.2069390 -0.629464E-05  0.478E-02    1.42       1.0  T
   3   -141.2069221  0.169045E-04  0.154E-02    1.42       1.0  T
   4   -141.2069421 -0.199939E-04  0.280E-03    1.42       3.9  T
   5   -141.2069425 -0.361751E-06  0.162E-03    1.42       6.8  T
   6   -141.2069426 -0.122742E-06  0.710E-04    1.42      15.5  T
   7   -141.2069426 -0.321725E-07  0.225E-04    1.42      48.8  T
     SCC iter.                  ...        0 min,  0.046 sec
     gradient                   ...        0 min,  0.057 sec
 * total energy  :  -138.9269133 Eh     change       -0.2657994E-03 Eh
   gradient norm :     0.0058697 Eh/α   predicted    -0.2335768E-03 ( -12.12%)
   displ. norm   :     0.5778141 α      lambda       -0.2939554E-03
   maximum displ.:     0.4419471 α      in ANC's #2, #8, #7, ...

........................................................................
.............................. CYCLE   61 ..............................
........................................................................

 iter      E             dE          RMSdq      gap      omega  full diag
   1   -141.2046681 -0.141205E+03  0.921E-02    1.41       0.0  T
   2   -141.2046742 -0.611385E-05  0.538E-02    1.41       1.0  T
   3   -141.2046570  0.172752E-04  0.152E-02    1.41       1.0  T
   4   -141.2046774 -0.204117E-04  0.282E-03    1.41       3.9  T
   5   -141.2046777 -0.312369E-06  0.162E-03    1.41       6.8  T
   6   -141.2046778 -0.123522E-06  0.596E-04    1.41      18.4  T
   7   -141.2046778 -0.223810E-07  0.213E-04    1.41      51.6  T
     SCC iter.                  ...        0 min,  0.046 sec
     gradient                   ...        0 min,  0.057 sec
 * total energy  :  -138.9271244 Eh     change       -0.2111136E-03 Eh
   gradient norm :     0.0063288 Eh/α   predicted    -0.1960520E-03 (  -7.13%)
   displ. norm   :     0.4575433 α      lambda       -0.2754847E-03
   maximum displ.:     0.3579240 α      in ANC's #2, #8, #7, ...

........................................................................
.............................. CYCLE   62 ..............................
........................................................................

 iter      E             dE          RMSdq      gap      omega  full diag
   1   -141.2071606 -0.141207E+03  0.705E-02    1.41       0.0  T
   2   -141.2071650 -0.439074E-05  0.412E-02    1.40       1.0  T
   3   -141.2071420  0.230203E-04  0.158E-02    1.40       1.0  T
   4   -141.2071678 -0.257535E-04  0.308E-03    1.40       3.6  T
   5   -141.2071685 -0.755334E-06  0.143E-03    1.40       7.7  T
   6   -141.2071686 -0.812199E-07  0.559E-04    1.40      19.6  T
   7   -141.2071686 -0.140125E-07  0.219E-04    1.40      50.0  T
     SCC iter.                  ...        0 min,  0.046 sec
     gradient                   ...        0 min,  0.057 sec
 * total energy  :  -138.9272948 Eh     change       -0.1703731E-03 Eh
   gradient norm :     0.0071110 Eh/α   predicted    -0.1665834E-03 (  -2.22%)
   displ. norm   :     0.4198460 α      lambda       -0.2227607E-03
   maximum displ.:     0.3366887 α      in ANC's #2, #8, #7, ...

........................................................................
.............................. CYCLE   63 ..............................
........................................................................

 iter      E             dE          RMSdq      gap      omega  full diag
   1   -141.2094253 -0.141209E+03  0.602E-02    1.41       0.0  T
   2   -141.2094278 -0.256324E-05  0.352E-02    1.40       1.0  T
   3   -141.2094100  0.177916E-04  0.138E-02    1.40       1.0  T
   4   -141.2094298 -0.197444E-04  0.240E-03    1.40       4.6  T
   5   -141.2094303 -0.467334E-06  0.111E-03    1.40       9.9  T
   6   -141.2094303 -0.499017E-07  0.469E-04    1.40      23.4  T
   7   -141.2094303 -0.810505E-08  0.189E-04    1.40      58.1  T
     SCC iter.                  ...        0 min,  0.046 sec
     gradient                   ...        0 min,  0.057 sec
 * total energy  :  -138.9274522 Eh     change       -0.1573826E-03 Eh
   gradient norm :     0.0075784 Eh/α   predicted    -0.1310186E-03 ( -16.75%)
   displ. norm   :     0.4193922 α      lambda       -0.2346818E-03
   maximum displ.:     0.3316099 α      in ANC's #2, #8, #7, ...

........................................................................
.............................. CYCLE   64 ..............................
........................................................................

 iter      E             dE          RMSdq      gap      omega  full diag
   1   -141.2070128 -0.141207E+03  0.635E-02    1.40       0.0  T
   2   -141.2070160 -0.319000E-05  0.371E-02    1.40       1.0  T
   3   -141.2070016  0.144162E-04  0.129E-02    1.40       1.0  T
   4   -141.2070180 -0.164320E-04  0.229E-03    1.40       4.8  T
   5   -141.2070183 -0.315387E-06  0.120E-03    1.40       9.1  T
   6   -141.2070184 -0.602318E-07  0.500E-04    1.40      22.0  T
   7   -141.2070184 -0.149768E-07  0.197E-04    1.40      55.8  T
     SCC iter.                  ...        0 min,  0.046 sec
     gradient                   ...        0 min,  0.057 sec
 * total energy  :  -138.9275916 Eh     change       -0.1393710E-03 Eh
   gradient norm :     0.0080201 Eh/α   predicted    -0.1379846E-03 (  -0.99%)
   displ. norm   :     0.3922540 α      lambda       -0.2719662E-03
   maximum displ.:     0.3106039 α      in ANC's #2, #8, #7, ...

........................................................................
.............................. CYCLE   65 ..............................
........................................................................

 iter      E             dE          RMSdq      gap      omega  full diag
   1   -141.2080524 -0.141208E+03  0.557E-02    1.41       0.0  T
   2   -141.2080559 -0.351914E-05  0.327E-02    1.41       1.0  T
   3   -141.2080435  0.124381E-04  0.128E-02    1.40       1.0  T
   4   -141.2080582 -0.146751E-04  0.194E-03    1.40       5.7  T
   5   -141.2080584 -0.221809E-06  0.960E-04    1.40      11.4  T
   6   -141.2080584 -0.236378E-07  0.470E-04    1.40      23.3  T
     SCC iter.                  ...        0 min,  0.040 sec
     gradient                   ...        0 min,  0.057 sec
 * total energy  :  -138.9277874 Eh     change       -0.1958712E-03 Eh
   gradient norm :     0.0064652 Eh/α   predicted    -0.1569101E-03 ( -19.89%)
   displ. norm   :     0.5265679 α      lambda       -0.2924062E-03
   maximum displ.:     0.4148428 α      in ANC's #2, #8, #15, ...

........................................................................
.............................. CYCLE   66 ..............................
........................................................................

 iter      E             dE          RMSdq      gap      omega  full diag
   1   -141.2076635 -0.141208E+03  0.732E-02    1.40       0.0  T
   2   -141.2076686 -0.504288E-05  0.429E-02    1.41       1.0  T
   3   -141.2076425  0.260561E-04  0.177E-02    1.40       1.0  T
   4   -141.2076723 -0.297396E-04  0.298E-03    1.40       3.7  T
   5   -141.2076729 -0.661164E-06  0.144E-03    1.40       7.6  T
   6   -141.2076730 -0.873989E-07  0.641E-04    1.40      17.1  T
   7   -141.2076730 -0.181989E-07  0.270E-04    1.40      40.7  T
     SCC iter.                  ...        0 min,  0.046 sec
     gradient                   ...        0 min,  0.057 sec
 * total energy  :  -138.9279799 Eh     change       -0.1924942E-03 Eh
   gradient norm :     0.0079501 Eh/α   predicted    -0.1867440E-03 (  -2.99%)
   displ. norm   :     0.5032157 α      lambda       -0.2584824E-03
   maximum displ.:     0.3935570 α      in ANC's #2, #8, #10, ...
 * RMSD in coord.:     1.1523103 α      energy gain  -0.7242068E-02 Eh

generating ANC from exact Hessian ...
Using Lindh-Hessian (1995)
 Shifting diagonal of input Hessian by    9.9451014857205536E-003
 Lowest  eigenvalues of input Hessian
    0.000000    0.000000    0.000000    0.000000    0.000000    0.000000
    0.010000    0.010032    0.010081    0.010244    0.010288    0.010652
    0.010789    0.010839    0.010923    0.011098    0.011193    0.011612
 Highest eigenvalues
    2.140722    2.158024    2.192442    2.253761    2.256390    2.349958


........................................................................
.............................. CYCLE   67 ..............................
........................................................................

 iter      E             dE          RMSdq      gap      omega  full diag
   1   -141.2114840 -0.141211E+03  0.613E-02    1.41       0.0  T
   2   -141.2114875 -0.350710E-05  0.361E-02    1.41       1.0  T
   3   -141.2114614  0.261535E-04  0.174E-02    1.40       1.0  T
   4   -141.2114910 -0.295882E-04  0.300E-03    1.41       3.7  T
   5   -141.2114917 -0.719871E-06  0.132E-03    1.41       8.3  T
   6   -141.2114917 -0.585100E-07  0.574E-04    1.41      19.1  T
   7   -141.2114918 -0.145377E-07  0.225E-04    1.41      48.8  T
     SCC iter.                  ...        0 min,  0.046 sec
     gradient                   ...        0 min,  0.057 sec
 * total energy  :  -138.9281717 Eh     change       -0.1917796E-03 Eh
   gradient norm :     0.0066461 Eh/α   predicted     0.0000000E+00 (-100.00%)
   displ. norm   :     0.0566980 α      lambda       -0.8235989E-04
   maximum displ.:     0.0250488 α      in ANC's #7, #2, #1, ...

........................................................................
.............................. CYCLE   68 ..............................
........................................................................

 iter      E             dE          RMSdq      gap      omega  full diag
   1   -141.2106097 -0.141211E+03  0.155E-02    1.41       0.0  T
   2   -141.2106101 -0.376569E-06  0.918E-03    1.41       1.2  T
   3   -141.2106091  0.106089E-05  0.384E-03    1.41       2.9  T
   4   -141.2106103 -0.119834E-05  0.812E-04    1.41      13.5  T
   5   -141.2106103 -0.611144E-07  0.318E-04    1.41      34.5  T
   6   -141.2106103 -0.639662E-08  0.143E-04    1.41      76.8  T
     SCC iter.                  ...        0 min,  0.040 sec
     gradient                   ...        0 min,  0.057 sec
 * total energy  :  -138.9282481 Eh     change       -0.7639135E-04 Eh
   gradient norm :     0.0031918 Eh/α   predicted    -0.5084526E-04 ( -33.44%)
   displ. norm   :     0.1322809 α      lambda       -0.1135965E-03
   maximum displ.:     0.0628552 α      in ANC's #7, #2, #1, ...

........................................................................
.............................. CYCLE   69 ..............................
........................................................................

 iter      E             dE          RMSdq      gap      omega  full diag
   1   -141.2095356 -0.141210E+03  0.261E-02    1.41       0.0  T
   2   -141.2095363 -0.763295E-06  0.153E-02    1.41       1.0  T
   3   -141.2095335  0.288660E-05  0.633E-03    1.41       1.7  T
   4   -141.2095368 -0.330071E-05  0.114E-03    1.41       9.6  T
   5   -141.2095369 -0.109074E-06  0.469E-04    1.41      23.4  T
   6   -141.2095369 -0.119454E-07  0.223E-04    1.41      49.3  T
     SCC iter.                  ...        0 min,  0.040 sec
     gradient                   ...        0 min,  0.057 sec
 * total energy  :  -138.9283265 Eh     change       -0.7837547E-04 Eh
   gradient norm :     0.0028831 Eh/α   predicted    -0.5779352E-04 ( -26.26%)
   displ. norm   :     0.1560927 α      lambda       -0.7899357E-04
   maximum displ.:     0.0740566 α      in ANC's #7, #2, #1, ...

........................................................................
.............................. CYCLE   70 ..............................
........................................................................

 iter      E             dE          RMSdq      gap      omega  full diag
   1   -141.2091079 -0.141209E+03  0.264E-02    1.41       0.0  T
   2   -141.2091084 -0.501906E-06  0.154E-02    1.41       1.0  T
   3   -141.2091063  0.207144E-05  0.528E-03    1.41       2.1  T
   4   -141.2091087 -0.239151E-05  0.880E-04    1.41      12.5  T
   5   -141.2091088 -0.402481E-07  0.466E-04    1.41      23.5  T
   6   -141.2091088 -0.903455E-08  0.202E-04    1.41      54.3  T
     SCC iter.                  ...        0 min,  0.040 sec
     gradient                   ...        0 min,  0.057 sec
 * total energy  :  -138.9283896 Eh     change       -0.6314410E-04 Eh
   gradient norm :     0.0043701 Eh/α   predicted    -0.4045974E-04 ( -35.92%)
   displ. norm   :     0.2501334 α      lambda       -0.1128408E-03
   maximum displ.:     0.1181201 α      in ANC's #2, #7, #1, ...

........................................................................
.............................. CYCLE   71 ..............................
........................................................................

 iter      E             dE          RMSdq      gap      omega  full diag
   1   -141.2088660 -0.141209E+03  0.401E-02    1.41       0.0  T
   2   -141.2088670 -0.964514E-06  0.234E-02    1.41       1.0  T
   3   -141.2088640  0.299089E-05  0.634E-03    1.41       1.7  T
   4   -141.2088676 -0.356168E-05  0.115E-03    1.41       9.6  T
   5   -141.2088676 -0.244799E-07  0.713E-04    1.41      15.4  T
   6   -141.2088676 -0.218712E-07  0.262E-04    1.41      41.8  T
     SCC iter.                  ...        0 min,  0.039 sec
     gradient                   ...        0 min,  0.057 sec
 * total energy  :  -138.9284814 Eh     change       -0.9179485E-04 Eh
   gradient norm :     0.0049590 Eh/α   predicted    -0.5995071E-04 ( -34.69%)
   displ. norm   :     0.3390742 α      lambda       -0.1384638E-03
   maximum displ.:     0.1637855 α      in ANC's #2, #7, #1, ...

........................................................................
.............................. CYCLE   72 ..............................
........................................................................

 iter      E             dE          RMSdq      gap      omega  full diag
   1   -141.2086783 -0.141209E+03  0.530E-02    1.40       0.0  T
   2   -141.2086800 -0.163756E-05  0.309E-02    1.41       1.0  T
   3   -141.2086759  0.407562E-05  0.719E-03    1.40       1.5  T
   4   -141.2086809 -0.496244E-05  0.149E-03    1.41       7.4  T
   5   -141.2086809 -0.298457E-07  0.931E-04    1.41      11.8  T
   6   -141.2086809 -0.373820E-07  0.312E-04    1.41      35.2  T
     SCC iter.                  ...        0 min,  0.040 sec
     gradient                   ...        0 min,  0.057 sec
 * total energy  :  -138.9285935 Eh     change       -0.1120339E-03 Eh
   gradient norm :     0.0047587 Eh/α   predicted    -0.7719901E-04 ( -31.09%)
   displ. norm   :     0.3900696 α      lambda       -0.1486761E-03
   maximum displ.:     0.1931091 α      in ANC's #2, #7, #1, ...

........................................................................
.............................. CYCLE   73 ..............................
........................................................................

 iter      E             dE          RMSdq      gap      omega  full diag
   1   -141.2086044 -0.141209E+03  0.607E-02    1.41       0.0  T
   2   -141.2086064 -0.207043E-05  0.354E-02    1.41       1.0  T
   3   -141.2086016  0.483217E-05  0.762E-03    1.41       1.4  T
   4   -141.2086076 -0.593419E-05  0.168E-03    1.41       6.5  T
   5   -141.2086076 -0.384485E-07  0.105E-03    1.41      10.4  T
   6   -141.2086076 -0.503081E-07  0.329E-04    1.41      33.4  T
   7   -141.2086076 -0.601270E-08  0.144E-04    1.41      76.2  T
     SCC iter.                  ...        0 min,  0.047 sec
     gradient                   ...        0 min,  0.057 sec
 * total energy  :  -138.9287165 Eh     change       -0.1230808E-03 Eh
   gradient norm :     0.0044846 Eh/α   predicted    -0.8568693E-04 ( -30.38%)
   displ. norm   :     0.4350313 α      lambda       -0.1702527E-03
   maximum displ.:     0.2212195 α      in ANC's #2, #7, #1, ...

........................................................................
.............................. CYCLE   74 ..............................
........................................................................

 iter      E             dE          RMSdq      gap      omega  full diag
   1   -141.2090312 -0.141209E+03  0.676E-02    1.41       0.0  T
   2   -141.2090338 -0.255042E-05  0.394E-02    1.41       1.0  T
   3   -141.2090280  0.578773E-05  0.822E-03    1.41       1.3  T
   4   -141.2090352 -0.715273E-05  0.177E-03    1.41       6.2  T
   5   -141.2090352 -0.368188E-07  0.111E-03    1.41       9.9  T
   6   -141.2090353 -0.557258E-07  0.354E-04    1.41      31.1  T
   7   -141.2090353 -0.674609E-08  0.155E-04    1.41      70.8  T
     SCC iter.                  ...        0 min,  0.046 sec
     gradient                   ...        0 min,  0.057 sec
 * total energy  :  -138.9288584 Eh     change       -0.1418292E-03 Eh
   gradient norm :     0.0042976 Eh/α   predicted    -0.1012773E-03 ( -28.59%)
   displ. norm   :     0.4682921 α      lambda       -0.1811908E-03
   maximum displ.:     0.2441660 α      in ANC's #2, #1, #7, ...

........................................................................
.............................. CYCLE   75 ..............................
........................................................................

 iter      E             dE          RMSdq      gap      omega  full diag
   1   -141.2096091 -0.141210E+03  0.718E-02    1.42       0.0  T
   2   -141.2096118 -0.275329E-05  0.418E-02    1.42       1.0  T
   3   -141.2096060  0.583867E-05  0.829E-03    1.42       1.3  T
   4   -141.2096133 -0.724897E-05  0.183E-03    1.42       6.0  T
   5   -141.2096133 -0.332518E-07  0.119E-03    1.42       9.3  T
   6   -141.2096134 -0.708886E-07  0.397E-04    1.42      27.7  T
   7   -141.2096134 -0.925667E-08  0.168E-04    1.42      65.5  T
     SCC iter.                  ...        0 min,  0.046 sec
     gradient                   ...        0 min,  0.057 sec
 * total energy  :  -138.9290072 Eh     change       -0.1488038E-03 Eh
   gradient norm :     0.0043067 Eh/α   predicted    -0.1104636E-03 ( -25.77%)
   displ. norm   :     0.4713216 α      lambda       -0.1662172E-03
   maximum displ.:     0.2512589 α      in ANC's #2, #1, #7, ...

........................................................................
.............................. CYCLE   76 ..............................
........................................................................

 iter      E             dE          RMSdq      gap      omega  full diag
   1   -141.2099203 -0.141210E+03  0.698E-02    1.42       0.0  T
   2   -141.2099227 -0.236254E-05  0.407E-02    1.42       1.0  T
   3   -141.2099166  0.603667E-05  0.820E-03    1.42       1.3  T
   4   -141.2099238 -0.721727E-05  0.192E-03    1.42       5.7  T
   5   -141.2099239 -0.958981E-07  0.122E-03    1.42       9.0  T
   6   -141.2099240 -0.883708E-07  0.361E-04    1.42      30.4  T
   7   -141.2099240 -0.641762E-08  0.156E-04    1.42      70.2  T
     SCC iter.                  ...        0 min,  0.046 sec
     gradient                   ...        0 min,  0.057 sec
 * total energy  :  -138.9291443 Eh     change       -0.1371355E-03 Eh
   gradient norm :     0.0043946 Eh/α   predicted    -0.1015719E-03 ( -25.93%)
   displ. norm   :     0.4566235 α      lambda       -0.1539325E-03
   maximum displ.:     0.2487258 α      in ANC's #2, #1, #7, ...

........................................................................
.............................. CYCLE   77 ..............................
........................................................................

 iter      E             dE          RMSdq      gap      omega  full diag
   1   -141.2105296 -0.141211E+03  0.640E-02    1.43       0.0  T
   2   -141.2105315 -0.185166E-05  0.373E-02    1.43       1.0  T
   3   -141.2105243  0.719002E-05  0.856E-03    1.43       1.3  T
   4   -141.2105325 -0.820459E-05  0.190E-03    1.43       5.8  T
   5   -141.2105326 -0.159363E-06  0.109E-03    1.43      10.1  T
   6   -141.2105327 -0.606578E-07  0.325E-04    1.43      33.8  T
   7   -141.2105327 -0.389807E-08  0.145E-04    1.43      76.0  T
     SCC iter.                  ...        0 min,  0.046 sec
     gradient                   ...        0 min,  0.057 sec
 * total energy  :  -138.9292738 Eh     change       -0.1294751E-03 Eh
   gradient norm :     0.0041663 Eh/α   predicted    -0.9301449E-04 ( -28.16%)
   displ. norm   :     0.4737084 α      lambda       -0.1573466E-03
   maximum displ.:     0.2620830 α      in ANC's #2, #1, #5, ...

........................................................................
.............................. CYCLE   78 ..............................
........................................................................

 iter      E             dE          RMSdq      gap      omega  full diag
   1   -141.2108138 -0.141211E+03  0.620E-02    1.44       0.0  T
   2   -141.2108154 -0.163023E-05  0.362E-02    1.43       1.0  T
   3   -141.2108053  0.101006E-04  0.989E-03    1.43       1.1  T
   4   -141.2108166 -0.112749E-04  0.190E-03    1.43       5.8  T
   5   -141.2108168 -0.165614E-06  0.105E-03    1.43      10.5  T
   6   -141.2108168 -0.476648E-07  0.313E-04    1.43      35.1  T
   7   -141.2108168 -0.354163E-08  0.139E-04    1.43      78.7  T
     SCC iter.                  ...        0 min,  0.046 sec
     gradient                   ...        0 min,  0.057 sec
 * total energy  :  -138.9294088 Eh     change       -0.1349726E-03 Eh
   gradient norm :     0.0036949 Eh/α   predicted    -0.9632800E-04 ( -28.63%)
   displ. norm   :     0.4956871 α      lambda       -0.1700076E-03
   maximum displ.:     0.2787667 α      in ANC's #2, #1, #5, ...

........................................................................
.............................. CYCLE   79 ..............................
........................................................................

 iter      E             dE          RMSdq      gap      omega  full diag
   1   -141.2117456 -0.141212E+03  0.594E-02    1.44       0.0  T
   2   -141.2117472 -0.155842E-05  0.347E-02    1.44       1.0  T
   3   -141.2117342  0.129628E-04  0.111E-02    1.44       1.0  T
   4   -141.2117485 -0.143107E-04  0.192E-03    1.44       5.7  T
   5   -141.2117487 -0.184313E-06  0.100E-03    1.44      10.9  T
   6   -141.2117488 -0.356156E-07  0.328E-04    1.44      33.5  T
   7   -141.2117488 -0.386123E-08  0.137E-04    1.44      80.2  T
     SCC iter.                  ...        0 min,  0.045 sec
     gradient                   ...        0 min,  0.057 sec
 * total energy  :  -138.9295539 Eh     change       -0.1451039E-03 Eh
   gradient norm :     0.0036699 Eh/α   predicted    -0.1058931E-03 ( -27.02%)
   displ. norm   :     0.5389935 α      lambda       -0.1741507E-03
   maximum displ.:     0.3056374 α      in ANC's #2, #1, #5, ...

........................................................................
.............................. CYCLE   80 ..............................
........................................................................

 iter      E             dE          RMSdq      gap      omega  full diag
   1   -141.2104414 -0.141210E+03  0.618E-02    1.44       0.0  T
   2   -141.2104431 -0.165854E-05  0.361E-02    1.44       1.0  T
   3   -141.2104272  0.159086E-04  0.124E-02    1.44       1.0  T
   4   -141.2104448 -0.175562E-04  0.206E-03    1.44       5.3  T
   5   -141.2104450 -0.206255E-06  0.106E-03    1.44      10.4  T
   6   -141.2104450 -0.341009E-07  0.343E-04    1.44      32.0  T
   7   -141.2104450 -0.530520E-08  0.139E-04    1.44      78.9  T
     SCC iter.                  ...        0 min,  0.045 sec
     gradient                   ...        0 min,  0.057 sec
 * total energy  :  -138.9297022 Eh     change       -0.1483665E-03 Eh
   gradient norm :     0.0039972 Eh/α   predicted    -0.1123731E-03 ( -24.26%)
   displ. norm   :     0.5306703 α      lambda       -0.1889062E-03
   maximum displ.:     0.3052967 α      in ANC's #2, #1, #5, ...

........................................................................
.............................. CYCLE   81 ..............................
........................................................................

 iter      E             dE          RMSdq      gap      omega  full diag
   1   -141.2136544 -0.141214E+03  0.555E-02    1.45       0.0  T
   2   -141.2136561 -0.179147E-05  0.325E-02    1.45       1.0  T
   3   -141.2136405  0.155940E-04  0.125E-02    1.45       1.0  T
   4   -141.2136576 -0.170818E-04  0.218E-03    1.45       5.0  T
   5   -141.2136579 -0.305949E-06  0.960E-04    1.45      11.4  T
   6   -141.2136580 -0.235679E-07  0.384E-04    1.45      28.6  T
     SCC iter.                  ...        0 min,  0.039 sec
     gradient                   ...        0 min,  0.057 sec
 * total energy  :  -138.9298451 Eh     change       -0.1428479E-03 Eh
   gradient norm :     0.0050114 Eh/α   predicted    -0.1210525E-03 ( -15.26%)
   displ. norm   :     0.6056710 α      lambda       -0.1902622E-03
   maximum displ.:     0.3501655 α      in ANC's #2, #1, #5, ...

........................................................................
.............................. CYCLE   82 ..............................
........................................................................

 iter      E             dE          RMSdq      gap      omega  full diag
   1   -141.2083416 -0.141208E+03  0.679E-02    1.45       0.0  T
   2   -141.2083440 -0.239767E-05  0.397E-02    1.45       1.0  T
   3   -141.2083259  0.180579E-04  0.137E-02    1.45       1.0  T
   4   -141.2083459 -0.200308E-04  0.253E-03    1.45       4.3  T
   5   -141.2083463 -0.361282E-06  0.120E-03    1.45       9.2  T
   6   -141.2083463 -0.346598E-07  0.424E-04    1.45      25.9  T
   7   -141.2083463 -0.983516E-08  0.164E-04    1.45      66.9  T
     SCC iter.                  ...        0 min,  0.045 sec
     gradient                   ...        0 min,  0.057 sec
 * total energy  :  -138.9299821 Eh     change       -0.1370724E-03 Eh
   gradient norm :     0.0052682 Eh/α   predicted    -0.1300310E-03 (  -5.14%)
   displ. norm   :     0.4021668 α      lambda       -0.1509098E-03
   maximum displ.:     0.2421952 α      in ANC's #2, #1, #5, ...

........................................................................
.............................. CYCLE   83 ..............................
........................................................................

 iter      E             dE          RMSdq      gap      omega  full diag
   1   -141.2099912 -0.141210E+03  0.428E-02    1.45       0.0  T
   2   -141.2099924 -0.117212E-05  0.251E-02    1.45       1.0  T
   3   -141.2099846  0.773954E-05  0.923E-03    1.45       1.2  T
   4   -141.2099932 -0.860899E-05  0.170E-03    1.45       6.5  T
   5   -141.2099934 -0.176404E-06  0.745E-04    1.45      14.7  T
   6   -141.2099934 -0.140018E-07  0.316E-04    1.45      34.7  T
     SCC iter.                  ...        0 min,  0.039 sec
     gradient                   ...        0 min,  0.058 sec
 * total energy  :  -138.9301069 Eh     change       -0.1247424E-03 Eh
   gradient norm :     0.0039446 Eh/α   predicted    -0.8767337E-04 ( -29.72%)
   displ. norm   :     0.5039560 α      lambda       -0.1709302E-03
   maximum displ.:     0.3071099 α      in ANC's #2, #1, #5, ...

........................................................................
.............................. CYCLE   84 ..............................
........................................................................

 iter      E             dE          RMSdq      gap      omega  full diag
   1   -141.2123125 -0.141212E+03  0.524E-02    1.46       0.0  T
   2   -141.2123146 -0.208801E-05  0.307E-02    1.46       1.0  T
   3   -141.2123034  0.111914E-04  0.111E-02    1.46       1.0  T
   4   -141.2123159 -0.125394E-04  0.211E-03    1.46       5.2  T
   5   -141.2123162 -0.276022E-06  0.906E-04    1.46      12.1  T
   6   -141.2123162 -0.222208E-07  0.410E-04    1.46      26.8  T
     SCC iter.                  ...        0 min,  0.039 sec
     gradient                   ...        0 min,  0.057 sec
 * total energy  :  -138.9302452 Eh     change       -0.1383446E-03 Eh
   gradient norm :     0.0027664 Eh/α   predicted    -0.1071737E-03 ( -22.53%)
   displ. norm   :     0.5599694 α      lambda       -0.1560990E-03
   maximum displ.:     0.3436911 α      in ANC's #2, #1, #5, ...

........................................................................
.............................. CYCLE   85 ..............................
........................................................................

 iter      E             dE          RMSdq      gap      omega  full diag
   1   -141.2132066 -0.141213E+03  0.571E-02    1.45       0.0  T
   2   -141.2132085 -0.184444E-05  0.334E-02    1.45       1.0  T
   3   -141.2131976  0.109123E-04  0.107E-02    1.45       1.0  T
   4   -141.2132098 -0.122262E-04  0.195E-03    1.45       5.6  T
   5   -141.2132100 -0.183210E-06  0.976E-04    1.45      11.2  T
   6   -141.2132100 -0.309155E-07  0.380E-04    1.45      28.9  T
     SCC iter.                  ...        0 min,  0.038 sec
     gradient                   ...        0 min,  0.057 sec
 * total energy  :  -138.9303784 Eh     change       -0.1331950E-03 Eh
   gradient norm :     0.0036668 Eh/α   predicted    -0.1025271E-03 ( -23.02%)
   displ. norm   :     0.5743010 α      lambda       -0.1610904E-03
   maximum displ.:     0.3527296 α      in ANC's #2, #1, #5, ...

........................................................................
.............................. CYCLE   86 ..............................
........................................................................

 iter      E             dE          RMSdq      gap      omega  full diag
   1   -141.2135438 -0.141214E+03  0.568E-02    1.46       0.0  T
   2   -141.2135459 -0.208778E-05  0.332E-02    1.46       1.0  T
   3   -141.2135345  0.113325E-04  0.108E-02    1.46       1.0  T
   4   -141.2135472 -0.126665E-04  0.209E-03    1.46       5.2  T
   5   -141.2135474 -0.249727E-06  0.957E-04    1.46      11.5  T
   6   -141.2135475 -0.232083E-07  0.409E-04    1.46      26.8  T
     SCC iter.                  ...        0 min,  0.038 sec
     gradient                   ...        0 min,  0.057 sec
 * total energy  :  -138.9305243 Eh     change       -0.1458771E-03 Eh
   gradient norm :     0.0039671 Eh/α   predicted    -0.1071130E-03 ( -26.57%)
   displ. norm   :     0.5823114 α      lambda       -0.1891840E-03
   maximum displ.:     0.3586550 α      in ANC's #2, #1, #5, ...

........................................................................
.............................. CYCLE   87 ..............................
........................................................................

 iter      E             dE          RMSdq      gap      omega  full diag
   1   -141.2144650 -0.141214E+03  0.575E-02    1.45       0.0  T
   2   -141.2144668 -0.179024E-05  0.336E-02    1.46       1.0  T
   3   -141.2144568  0.100045E-04  0.102E-02    1.46       1.1  T
   4   -141.2144680 -0.112213E-04  0.197E-03    1.46       5.6  T
   5   -141.2144682 -0.188037E-06  0.984E-04    1.46      11.2  T
   6   -141.2144682 -0.260050E-07  0.368E-04    1.46      29.8  T
     SCC iter.                  ...        0 min,  0.038 sec
     gradient                   ...        0 min,  0.057 sec
 * total energy  :  -138.9306980 Eh     change       -0.1736468E-03 Eh
   gradient norm :     0.0042501 Eh/α   predicted    -0.1266679E-03 ( -27.05%)
   displ. norm   :     0.7461766 α      lambda       -0.2480025E-03
   maximum displ.:     0.4553426 α      in ANC's #2, #1, #5, ...

........................................................................
.............................. CYCLE   88 ..............................
........................................................................

 iter      E             dE          RMSdq      gap      omega  full diag
   1   -141.2128666 -0.141213E+03  0.734E-02    1.45       0.0  T
   2   -141.2128699 -0.323954E-05  0.429E-02    1.45       1.0  T
   3   -141.2128510  0.188726E-04  0.141E-02    1.46       1.0  T
   4   -141.2128721 -0.210846E-04  0.271E-03    1.46       4.1  T
   5   -141.2128725 -0.396352E-06  0.129E-03    1.46       8.5  T
   6   -141.2128725 -0.390828E-07  0.510E-04    1.46      21.5  T
   7   -141.2128725 -0.112657E-07  0.191E-04    1.46      57.5  T
     SCC iter.                  ...        0 min,  0.045 sec
     gradient                   ...        0 min,  0.057 sec
 * total energy  :  -138.9309225 Eh     change       -0.2245816E-03 Eh
   gradient norm :     0.0038559 Eh/α   predicted    -0.1930433E-03 ( -14.04%)
   displ. norm   :     0.7775188 α      lambda       -0.2706297E-03
   maximum displ.:     0.4788242 α      in ANC's #1, #2, #4, ...

........................................................................
.............................. CYCLE   89 ..............................
........................................................................

 iter      E             dE          RMSdq      gap      omega  full diag
   1   -141.2131873 -0.141213E+03  0.769E-02    1.45       0.0  T
   2   -141.2131915 -0.419466E-05  0.450E-02    1.45       1.0  T
   3   -141.2131680  0.234832E-04  0.160E-02    1.46       1.0  T
   4   -141.2131942 -0.262519E-04  0.307E-03    1.46       3.6  T
   5   -141.2131948 -0.537267E-06  0.142E-03    1.46       7.7  T
   6   -141.2131948 -0.491847E-07  0.576E-04    1.46      19.1  T
   7   -141.2131948 -0.142518E-07  0.210E-04    1.46      52.2  T
     SCC iter.                  ...        0 min,  0.045 sec
     gradient                   ...        0 min,  0.057 sec
 * total energy  :  -138.9311514 Eh     change       -0.2289104E-03 Eh
   gradient norm :     0.0038301 Eh/α   predicted    -0.2171232E-03 (  -5.15%)
   displ. norm   :     0.7923637 α      lambda       -0.2301877E-03
   maximum displ.:     0.4922820 α      in ANC's #1, #2, #5, ...

........................................................................
.............................. CYCLE   90 ..............................
........................................................................

 iter      E             dE          RMSdq      gap      omega  full diag
   1   -141.2102869 -0.141210E+03  0.777E-02    1.45       0.0  T
   2   -141.2102908 -0.393786E-05  0.456E-02    1.45       1.0  T
   3   -141.2102647  0.261296E-04  0.165E-02    1.45       1.0  T
   4   -141.2102937 -0.290641E-04  0.305E-03    1.45       3.6  T
   5   -141.2102942 -0.509692E-06  0.143E-03    1.45       7.7  T
   6   -141.2102943 -0.486456E-07  0.572E-04    1.45      19.2  T
   7   -141.2102943 -0.151990E-07  0.212E-04    1.45      51.7  T
     SCC iter.                  ...        0 min,  0.045 sec
     gradient                   ...        0 min,  0.057 sec
 * total energy  :  -138.9313440 Eh     change       -0.1925277E-03 Eh
   gradient norm :     0.0044743 Eh/α   predicted    -0.1873563E-03 (  -2.69%)
   displ. norm   :     0.6741004 α      lambda       -0.2158872E-03
   maximum displ.:     0.4219675 α      in ANC's #1, #2, #4, ...

........................................................................
.............................. CYCLE   91 ..............................
........................................................................

 iter      E             dE          RMSdq      gap      omega  full diag
   1   -141.2125133 -0.141213E+03  0.678E-02    1.45       0.0  T
   2   -141.2125172 -0.385654E-05  0.398E-02    1.45       1.0  T
   3   -141.2124952  0.219964E-04  0.153E-02    1.46       1.0  T
   4   -141.2125196 -0.244395E-04  0.296E-03    1.46       3.7  T
   5   -141.2125202 -0.540548E-06  0.127E-03    1.46       8.7  T
   6   -141.2125202 -0.351927E-07  0.560E-04    1.46      19.6  T
   7   -141.2125202 -0.151460E-07  0.190E-04    1.46      57.6  T
     SCC iter.                  ...        0 min,  0.045 sec
     gradient                   ...        0 min,  0.057 sec
 * total energy  :  -138.9315170 Eh     change       -0.1730462E-03 Eh
   gradient norm :     0.0043770 Eh/α   predicted    -0.1569961E-03 (  -9.28%)
   displ. norm   :     0.7120914 α      lambda       -0.1940274E-03
   maximum displ.:     0.4447336 α      in ANC's #1, #2, #4, ...

........................................................................
.............................. CYCLE   92 ..............................
........................................................................

 iter      E             dE          RMSdq      gap      omega  full diag
   1   -141.2107661 -0.141211E+03  0.679E-02    1.45       0.0  T
   2   -141.2107691 -0.300899E-05  0.399E-02    1.45       1.0  T
   3   -141.2107464  0.226899E-04  0.152E-02    1.45       1.0  T
   4   -141.2107715 -0.251288E-04  0.268E-03    1.45       4.1  T
   5   -141.2107719 -0.373544E-06  0.126E-03    1.45       8.7  T
   6   -141.2107720 -0.425122E-07  0.510E-04    1.45      21.5  T
   7   -141.2107720 -0.129999E-07  0.193E-04    1.45      56.8  T
     SCC iter.                  ...        0 min,  0.046 sec
     gradient                   ...        0 min,  0.058 sec
 * total energy  :  -138.9316824 Eh     change       -0.1653524E-03 Eh
   gradient norm :     0.0049333 Eh/α   predicted    -0.1462129E-03 ( -11.57%)
   displ. norm   :     0.6193908 α      lambda       -0.2375128E-03
   maximum displ.:     0.3808852 α      in ANC's #1, #2, #4, ...
 * RMSD in coord.:     1.2335938 α      energy gain  -0.3702431E-02 Eh

generating ANC from exact Hessian ...
Using Lindh-Hessian (1995)
 Shifting diagonal of input Hessian by    9.9364314290468873E-003
 Lowest  eigenvalues of input Hessian
    0.000000    0.000000    0.000000    0.000000    0.000000    0.000000
    0.010000    0.010024    0.010093    0.010170    0.010263    0.010649
    0.010789    0.010912    0.011008    0.011219    0.011304    0.011595
 Highest eigenvalues
    2.141987    2.156128    2.192393    2.251903    2.255104    2.343609


........................................................................
.............................. CYCLE   93 ..............................
........................................................................

 iter      E             dE          RMSdq      gap      omega  full diag
   1   -141.2160104 -0.141216E+03  0.627E-02    1.46       0.0  T
   2   -141.2160146 -0.412050E-05  0.368E-02    1.46       1.0  T
   3   -141.2159963  0.182829E-04  0.141E-02    1.46       1.0  T
   4   -141.2160166 -0.203147E-04  0.307E-03    1.46       3.6  T
   5   -141.2160172 -0.639275E-06  0.120E-03    1.46       9.1  T
   6   -141.2160173 -0.362066E-07  0.564E-04    1.46      19.5  T
   7   -141.2160173 -0.152802E-07  0.193E-04    1.46      57.0  T
     SCC iter.                  ...        0 min,  0.045 sec
     gradient                   ...        0 min,  0.058 sec
 * total energy  :  -138.9318560 Eh     change       -0.1736437E-03 Eh
   gradient norm :     0.0045206 Eh/α   predicted     0.0000000E+00 (-100.00%)
   displ. norm   :     0.0439747 α      lambda       -0.4288859E-04
   maximum displ.:     0.0231997 α      in ANC's #1, #7, #15, ...

........................................................................
.............................. CYCLE   94 ..............................
........................................................................

 iter      E             dE          RMSdq      gap      omega  full diag
   1   -141.2149314 -0.141215E+03  0.110E-02    1.46       0.0  T
   2   -141.2149316 -0.181787E-06  0.645E-03    1.46       1.7  T
   3   -141.2149311  0.496088E-06  0.258E-03    1.46       4.3  T
   4   -141.2149317 -0.576592E-06  0.521E-04    1.46      21.1  T
   5   -141.2149317 -0.195577E-07  0.240E-04    1.46      45.7  T
     SCC iter.                  ...        0 min,  0.033 sec
     gradient                   ...        0 min,  0.058 sec
 * total energy  :  -138.9318981 Eh     change       -0.4208507E-04 Eh
   gradient norm :     0.0023851 Eh/α   predicted    -0.2644140E-04 ( -37.17%)
   displ. norm   :     0.1198163 α      lambda       -0.8025262E-04
   maximum displ.:     0.0643635 α      in ANC's #1, #7, #15, ...

   *** GEOMETRY OPTIMIZATION CONVERGED AFTER 94 ITERATIONS ***

------------------------------------------------------------------------
 total energy gain   :        -0.6698508 Eh     -420.3377 kcal/mol
 total RMSD          :         3.8990663 a0        2.0633 Å
 total power (kW/mol):       -18.7095007 (step) -152.2784 (real)
------------------------------------------------------------------------

 ANCopt (total)                0 d,  0 h,  0 min, 11.549 sec
 optimizer setup                ...        0 min,  0.000 sec (  0.001%)
 model hessian                  ...        0 min,  0.068 sec (  0.593%)
 ANC generation                 ...        0 min,  0.020 sec (  0.171%)
 coordinate transformation      ...        0 min,  0.005 sec (  0.042%)
 single point calculation       ...        0 min, 11.416 sec ( 98.843%)
 optimization log               ...        0 min,  0.018 sec (  0.156%)
 hessian update                 ...        0 min,  0.004 sec (  0.031%)
 rational function              ...        0 min,  0.011 sec (  0.094%)

================
 final structure:
================
 xtb: 6.7.1 (edcfbbe)
          08202606263D

 83 92  0     0  0            999 V2000
    3.1196   -2.7692    0.0691 C   0  0  0  0  0  0  0  0  0  0  0  0
   -0.4500   -1.6816    5.3363 C   0  0  0  0  0  0  0  0  0  0  0  0
   -0.0141   -2.5926    4.4097 N   0  0  0  0  0  0  0  0  0  0  0  0
    7.1376   -5.1663   -4.9078 H   0  0  0  0  0  0  0  0  0  0  0  0
    6.0546   -2.8556   -6.1517 H   0  0  0  0  0  0  0  0  0  0  0  0
   -2.3197   -0.9782    9.4952 H   0  0  0  0  0  0  0  0  0  0  0  0
    0.2765    0.5730   -3.4560 H   0  0  0  0  0  0  0  0  0  0  0  0
   -0.6592    1.5058   -0.9527 C   0  0  0  0  0  0  0  0  0  0  0  0
    2.8292   -1.6506   -3.3815 C   0  0  0  0  0  0  0  0  0  0  0  0
   -0.3094    2.2918   -1.5904 H   0  0  0  0  0  0  0  0  0  0  0  0
   -0.2142   -0.4398    4.9833 N   0  0  0  0  0  0  0  0  0  0  0  0
   -1.9093   -3.8499    7.7790 C   0  0  0  0  0  0  0  0  0  0  0  0
   -1.9892    2.6555    3.6573 H   0  0  0  0  0  0  0  0  0  0  0  0
   -2.5454    5.6921   -2.1944 H   0  0  0  0  0  0  0  0  0  0  0  0
    1.4676   -0.0146    1.7316 C   0  0  0  0  0  0  0  0  0  0  0  0
    6.5162   -4.8002   -4.1091 C   0  0  0  0  0  0  0  0  0  0  0  0
    5.5471   -3.9159   -4.3255 C   0  0  0  0  0  0  0  0  0  0  0  0
   -3.1445    3.5244   -0.5484 C   0  0  0  0  0  0  0  0  0  0  0  0
   -0.9405   -1.4557    0.4229 H   0  0  0  0  0  0  0  0  0  0  0  0
   -2.0435   -1.6582    8.7020 C   0  0  0  0  0  0  0  0  0  0  0  0
    2.7526   -1.9126   -2.0119 C   0  0  0  0  0  0  0  0  0  0  0  0
    5.1426   -4.2850   -1.5054 H   0  0  0  0  0  0  0  0  0  0  0  0
   -1.4369   -1.1883    7.5528 C   0  0  0  0  0  0  0  0  0  0  0  0
   -3.7264    5.0670    1.0190 C   0  0  0  0  0  0  0  0  0  0  0  0
   -3.3624    3.0383   -1.9380 C   0  0  0  0  0  0  0  0  0  0  0  0
    4.6370   -3.3185   -3.3618 C   0  0  0  0  0  0  0  0  0  0  0  0
   -4.2342    6.0035    1.2126 H   0  0  0  0  0  0  0  0  0  0  0  0
   -1.6514    1.6014   -0.0195 C   0  0  0  0  0  0  0  0  0  0  0  0
   -1.7815    2.4741    2.6913 N   0  0  0  0  0  0  0  0  0  0  0  0
   -4.6297    3.7012   -3.9591 C   0  0  0  0  0  0  0  0  0  0  0  0
    1.5280   -1.3964    1.4434 C   0  0  0  0  0  0  0  0  0  0  0  0
    0.9051   -0.4195   -1.6694 C   0  0  0  0  0  0  0  0  0  0  0  0
   -1.8066    0.4124    0.6135 O   0  0  0  0  0  0  0  0  0  0  0  0
    5.1859   -3.3361   -5.6818 C   0  0  0  0  0  0  0  0  0  0  0  0
    0.5419   -1.8819    3.3928 C   0  0  0  0  0  0  0  0  0  0  0  0
   -2.1078    5.0209    3.8271 H   0  0  0  0  0  0  0  0  0  0  0  0
    1.8361   -1.2931   -1.1314 C   0  0  0  0  0  0  0  0  0  0  0  0
    0.9957   -0.1239   -3.0498 C   0  0  0  0  0  0  0  0  0  0  0  0
    3.5437   -3.3313    0.8806 H   0  0  0  0  0  0  0  0  0  0  0  0
   -3.1124    4.3789    2.0520 C   0  0  0  0  0  0  0  0  0  0  0  0
   -3.7663    4.6578   -0.2344 N   0  0  0  0  0  0  0  0  0  0  0  0
   -2.0796   -4.9180    7.8239 H   0  0  0  0  0  0  0  0  0  0  0  0
    2.1255   -1.8389    0.1908 C   0  0  0  0  0  0  0  0  0  0  0  0
   -1.2153   -0.1451    7.3994 H   0  0  0  0  0  0  0  0  0  0  0  0
   -1.4907    1.5357    2.4726 H   0  0  0  0  0  0  0  0  0  0  0  0
   -3.2994    1.8630   -2.2394 O   0  0  0  0  0  0  0  0  0  0  0  0
    3.6304   -1.8973   -6.0675 H   0  0  0  0  0  0  0  0  0  0  0  0
   -2.4415    2.7590    0.3892 C   0  0  0  0  0  0  0  0  0  0  0  0
   -4.4583    5.9215   -4.7853 C   0  0  0  0  0  0  0  0  0  0  0  0
   -2.4553    3.1736    1.7386 C   0  0  0  0  0  0  0  0  0  0  0  0
    3.8297   -2.3956   -4.0544 C   0  0  0  0  0  0  0  0  0  0  0  0
   -0.9231   -0.4422    0.0756 C   0  0  0  0  0  0  0  0  0  0  0  0
   -0.1126   -3.5905    4.4935 H   0  0  0  0  0  0  0  0  0  0  0  0
   -3.6581    4.2242    4.1213 H   0  0  0  0  0  0  0  0  0  0  0  0
   -2.7643   -3.4247    9.7024 H   0  0  0  0  0  0  0  0  0  0  0  0
   -1.3256   -3.4176    6.6786 N   0  0  0  0  0  0  0  0  0  0  0  0
    4.6238   -4.3981   -6.6285 C   0  0  0  0  0  0  0  0  0  0  0  0
   -3.7555    4.0630   -2.9353 C   0  0  0  0  0  0  0  0  0  0  0  0
    4.1921   -2.3311   -5.3565 N   0  0  0  0  0  0  0  0  0  0  0  0
    1.9178   -0.7020   -3.8874 C   0  0  0  0  0  0  0  0  0  0  0  0
   -4.9931    4.6471   -4.9005 C   0  0  0  0  0  0  0  0  0  0  0  0
   -2.2905   -3.0187    8.8226 C   0  0  0  0  0  0  0  0  0  0  0  0
   -5.0150    2.6923   -3.9918 H   0  0  0  0  0  0  0  0  0  0  0  0
    1.9292   -0.4359   -4.9351 H   0  0  0  0  0  0  0  0  0  0  0  0
    3.7403   -4.8559   -6.1882 H   0  0  0  0  0  0  0  0  0  0  0  0
    1.8853    0.6758    1.0149 H   0  0  0  0  0  0  0  0  0  0  0  0
   -1.0938   -2.1086    6.5602 C   0  0  0  0  0  0  0  0  0  0  0  0
    4.3539   -3.9559   -7.5855 H   0  0  0  0  0  0  0  0  0  0  0  0
   -3.6006    6.2677   -3.8382 N   0  0  0  0  0  0  0  0  0  0  0  0
   -3.6194    5.8711    3.4886 H   0  0  0  0  0  0  0  0  0  0  0  0
    0.8845    1.4990    3.1494 H   0  0  0  0  0  0  0  0  0  0  0  0
    6.7214   -5.1811   -3.1252 H   0  0  0  0  0  0  0  0  0  0  0  0
   -3.1253    4.9037    3.4544 C   0  0  0  0  0  0  0  0  0  0  0  0
   -0.1704    0.1728   -0.8878 C   0  0  0  0  0  0  0  0  0  0  0  0
    1.0878   -2.3337    2.2776 N   0  0  0  0  0  0  0  0  0  0  0  0
    3.5534   -2.8391   -1.3025 C   0  0  0  0  0  0  0  0  0  0  0  0
    5.3669   -5.1716   -6.7982 H   0  0  0  0  0  0  0  0  0  0  0  0
    4.5108   -3.5571   -1.9913 C   0  0  0  0  0  0  0  0  0  0  0  0
   -4.7183    6.7057   -5.4846 H   0  0  0  0  0  0  0  0  0  0  0  0
   -5.6766    4.4047   -5.6999 H   0  0  0  0  0  0  0  0  0  0  0  0
    0.9167    0.4478    2.9050 C   0  0  0  0  0  0  0  0  0  0  0  0
   -3.2585    5.3671   -2.9385 C   0  0  0  0  0  0  0  0  0  0  0  0
    0.4087   -0.5189    3.7717 C   0  0  0  0  0  0  0  0  0  0  0  0
  1 39  1  0  0  0  0
  1 43  2  0  0  0  0
  1 76  1  0  0  0  0
  2  3  4  0  0  0  0
  2 11  4  0  0  0  0
  2 67  1  0  0  0  0
  3 35  4  0  0  0  0
  3 53  1  0  0  0  0
  4 16  1  0  0  0  0
  5 34  1  0  0  0  0
  6 20  1  0  0  0  0
  7 38  1  0  0  0  0
  8 10  1  0  0  0  0
  8 28  4  0  0  0  0
  8 74  4  0  0  0  0
  9 21  4  0  0  0  0
  9 51  4  0  0  0  0
  9 60  4  0  0  0  0
 11 83  4  0  0  0  0
 12 42  1  0  0  0  0
 12 56  4  0  0  0  0
 12 62  4  0  0  0  0
 13 29  1  0  0  0  0
 14 82  1  0  0  0  0
 15 31  4  0  0  0  0
 15 66  1  0  0  0  0
 15 81  4  0  0  0  0
 16 17  2  0  0  0  0
 16 72  1  0  0  0  0
 17 26  1  0  0  0  0
 17 34  1  0  0  0  0
 18 25  1  0  0  0  0
 18 41  4  0  0  0  0
 18 48  4  0  0  0  0
 19 52  1  0  0  0  0
 20 23  4  0  0  0  0
 20 62  4  0  0  0  0
 21 37  4  0  0  0  0
 21 76  4  0  0  0  0
 22 78  1  0  0  0  0
 23 44  1  0  0  0  0
 23 67  4  0  0  0  0
 24 27  1  0  0  0  0
 24 40  4  0  0  0  0
 24 41  4  0  0  0  0
 25 46  2  0  0  0  0
 25 58  1  0  0  0  0
 26 51  4  0  0  0  0
 26 78  4  0  0  0  0
 28 33  4  0  0  0  0
 28 48  1  0  0  0  0
 29 45  1  0  0  0  0
 29 50  1  0  0  0  0
 30 58  4  0  0  0  0
 30 61  4  0  0  0  0
 30 63  1  0  0  0  0
 31 43  1  0  0  0  0
 31 75  4  0  0  0  0
 32 37  4  0  0  0  0
 32 38  4  0  0  0  0
 32 74  1  0  0  0  0
 33 52  4  0  0  0  0
 34 57  1  0  0  0  0
 34 59  1  0  0  0  0
 35 75  4  0  0  0  0
 35 83  4  0  0  0  0
 36 73  1  0  0  0  0
 37 43  1  0  0  0  0
 38 60  4  0  0  0  0
 40 50  4  0  0  0  0
 40 73  1  0  0  0  0
 47 59  1  0  0  0  0
 48 50  4  0  0  0  0
 49 61  4  0  0  0  0
 49 69  4  0  0  0  0
 49 79  1  0  0  0  0
 51 59  1  0  0  0  0
 52 74  4  0  0  0  0
 54 73  1  0  0  0  0
 55 62  1  0  0  0  0
 56 67  4  0  0  0  0
 57 65  1  0  0  0  0
 57 68  1  0  0  0  0
 57 77  1  0  0  0  0
 58 82  4  0  0  0  0
 60 64  1  0  0  0  0
 61 80  1  0  0  0  0
 69 82  4  0  0  0  0
 70 73  1  0  0  0  0
 71 81  1  0  0  0  0
 76 78  4  0  0  0  0
 81 83  4  0  0  0  0
M  END
$$$$

 Bond Distances (Angstroems)
 ---------------------------
C1-H39=1.0744        C1-C43=1.3670        C1-C76=1.4403        C2-N3=1.3706         C2-N11=1.3123        C2-C67=1.4474        
N3-C2=1.3706         N3-C35=1.3595        N3-H53=1.0063        H4-C16=1.0761        H5-C34=1.0983        H6-C20=1.0806        
H7-C38=1.0807        C8-H10=1.0709        C8-C28=1.3655        C8-C74=1.4213        C9-C21=1.3966        C9-C51=1.4173        
C9-C60=1.4094        H10-C8=1.0709        N11-C2=1.3123        N11-C83=1.3646       C12-H42=1.0825       C12-N56=1.3185       
C12-C62=1.3876       H13-N29=1.0045       H14-C82=1.0807       C15-C31=1.4129       C15-H66=1.0792       C15-C81=1.3763       
C16-H4=1.0761        C16-C17=1.3297       C16-H72=1.0748       C17-C16=1.3297       C17-C26=1.4539       C17-C34=1.5186       
C18-C25=1.4882       C18-N41=1.3303       C18-C48=1.3997       H19-C52=1.0715       C20-H6=1.0806        C20-C23=1.3818       
C20-C62=1.3880       C21-C9=1.3966        C21-C37=1.4138       C21-C76=1.4152       H22-C78=1.0794       C23-C20=1.3818       
C23-H44=1.0775       C23-C67=1.3963       C24-H27=1.0828       C24-C40=1.3847       C24-N41=1.3191       C25-C18=1.4882       
C25-O46=1.2150       C25-C58=1.4829       C26-C17=1.4539       C26-C51=1.4083       C26-C78=1.3968       H27-C24=1.0828       
C28-C8=1.3655        C28-O33=1.3559       C28-C48=1.4599       N29-H13=1.0045       N29-H45=1.0064       N29-C50=1.3605       
C30-C58=1.3940       C30-C61=1.3831       C30-H63=1.0805       C31-C15=1.4129       C31-C43=1.4566       C31-N75=1.3297       
C32-C37=1.3853       C32-C38=1.4146       C32-C74=1.4556       O33-C28=1.3559       O33-C52=1.3417       C34-H5=1.0983        
C34-C17=1.5186       C34-C57=1.5297       C34-N59=1.4504       C35-N3=1.3595        C35-N75=1.3213       C35-C83=1.4210       
H36-C73=1.0899       C37-C21=1.4138       C37-C32=1.3853       C37-C43=1.4595       C38-H7=1.0807        C38-C32=1.4146       
C38-C60=1.3733       H39-C1=1.0744        C40-C24=1.3847       C40-C50=1.4081       C40-C73=1.4975       N41-C18=1.3303       
N41-C24=1.3191       H42-C12=1.0825       C43-C1=1.3670        C43-C31=1.4566       C43-C37=1.4595       H44-C23=1.0775       
H45-N29=1.0064       O46-C25=1.2150       H47-N59=1.0046       C48-C18=1.3997       C48-C28=1.4599       C48-C50=1.4117       
C49-C61=1.3869       C49-N69=1.3238       C49-H79=1.0824       C50-N29=1.3605       C50-C40=1.4081       C50-C48=1.4117       
C51-C9=1.4173        C51-C26=1.4083       C51-N59=1.3531       C52-H19=1.0715       C52-O33=1.3417       C52-C74=1.3686       
H53-N3=1.0063        H54-C73=1.0910       H55-C62=1.0786       N56-C12=1.3185       N56-C67=1.3347       C57-C34=1.5297       
C57-H65=1.0881       C57-H68=1.0882       C57-H77=1.0860       C58-C25=1.4829       C58-C30=1.3940       C58-C82=1.3957       
N59-C34=1.4504       N59-H47=1.0046       N59-C51=1.3531       C60-C9=1.4094        C60-C38=1.3733       C60-H64=1.0810       
C61-C30=1.3831       C61-C49=1.3869       C61-H80=1.0793       C62-C12=1.3876       C62-C20=1.3880       C62-H55=1.0786       
H63-C30=1.0805       H64-C60=1.0810       H65-C57=1.0881       H66-C15=1.0792       C67-C2=1.4474        C67-C23=1.3963       
C67-N56=1.3347       H68-C57=1.0882       N69-C49=1.3238       N69-C82=1.3182       H70-C73=1.0868       H71-C81=1.0797       
H72-C16=1.0748       C73-H36=1.0899       C73-C40=1.4975       C73-H54=1.0910       C73-H70=1.0868       C74-C8=1.4213        
C74-C32=1.4556       C74-C52=1.3686       N75-C31=1.3297       N75-C35=1.3213       C76-C1=1.4403        C76-C21=1.4152       
C76-C78=1.3808       H77-C57=1.0860       C78-H22=1.0794       C78-C26=1.3968       C78-C76=1.3808       H79-C49=1.0824       
H80-C61=1.0793       C81-C15=1.3763       C81-H71=1.0797       C81-C83=1.3942       C82-H14=1.0807       C82-C58=1.3957       
C82-N69=1.3182       C83-N11=1.3646       C83-C35=1.4210       C83-C81=1.3942       
 C  H  Rav=1.0816 sigma=0.0061  Rmin=1.0709  Rmax=1.0983    26
 C  C  Rav=1.4154 sigma=0.0423  Rmin=1.3297  Rmax=1.5297    44
 N  H  Rav=1.0055 sigma=0.0009  Rmin=1.0045  Rmax=1.0064     4
 N  C  Rav=1.3444 sigma=0.0340  Rmin=1.3123  Rmax=1.4504    15
 O  C  Rav=1.3042 sigma=0.0634  Rmin=1.2150  Rmax=1.3559     3

 selected bond angles (degree)
 --------------------
C43-C1-H39=125.16              C76-C1-H39=125.10              C76-C1-C43=109.69              N11-C2-N3=112.95               
C67-C2-N3=121.14               C67-C2-N11=125.91              C35-N3-C2=106.75               H53-N3-C2=124.87               
H53-N3-C35=128.37              C28-C8-H10=126.37              C74-C8-H10=127.10              C74-C8-C28=106.52              
C51-C9-C21=113.94              C60-C9-C21=116.28              C60-C9-C51=129.78              

 selected dihedral angles (degree)
 ---------------------------------
C35-N3-C2-N11=  0.11          C35-N3-C2-C67=180.25          H53-N3-C2-N11=180.71          H53-N3-C2-C67=  0.86          
           -------------------------------------------------
          |                Final Singlepoint                |
           -------------------------------------------------

          ...................................................
          :                      SETUP                      :
          :.................................................:
          :  # basis functions                 242          :
          :  # atomic orbitals                 242          :
          :  # shells                          136          :
          :  # electrons                       254          :
          :  max. iterations                   250          :
          :  Hamiltonian                  GFN2-xTB          :
          :  restarted?                      false          :
          :  GBSA solvation                  false          :
          :  PC potential                    false          :
          :  electronic temp.          300.0000000     K    :
          :  accuracy                    1.0000000          :
          :  -> integral cutoff          0.2500000E+02      :
          :  -> integral neglect         0.1000000E-07      :
          :  -> SCF convergence          0.1000000E-05 Eh   :
          :  -> wf. convergence          0.1000000E-03 e    :
          :  Broyden damping             0.4000000          :
          :  net charge                          0          :
          :  unpaired electrons                  0          :
          ...................................................

 iter      E             dE          RMSdq      gap      omega  full diag
   1   -141.2149317 -0.141215E+03  0.104E-04    1.46       0.0  T
   2   -141.2149317 -0.283649E-10  0.760E-05    1.46     144.5  T
   3   -141.2149317 -0.382357E-09  0.393E-05    1.46     279.3  T

   *** convergence criteria satisfied after 3 iterations ***

         #    Occupation            Energy/Eh            Energy/eV
      -------------------------------------------------------------
         1        2.0000           -0.7358945             -20.0247
       ...           ...                  ...                  ...
       121        2.0000           -0.3804639             -10.3529
       122        2.0000           -0.3717223             -10.1151
       123        2.0000           -0.3677396             -10.0067
       124        2.0000           -0.3660561              -9.9609
       125        2.0000           -0.3599319              -9.7942
       126        2.0000           -0.3590542              -9.7704
       127        2.0000           -0.3429953              -9.3334 (HOMO)
       128                         -0.2892263              -7.8702 (LUMO)
       129                         -0.2828034              -7.6955
       130                         -0.2756384              -7.5005
       131                         -0.2525873              -6.8733
       132                         -0.2464831              -6.7071
       ...                                ...                  ...
       242                          0.7478909              20.3511
      -------------------------------------------------------------
                  HL-Gap            0.0537690 Eh            1.4631 eV
             Fermi-level           -0.3161108 Eh           -8.6018 eV

 SCC (total)                   0 d,  0 h,  0 min,  0.095 sec
 SCC setup                      ...        0 min,  0.000 sec (  0.493%)
 Dispersion                     ...        0 min,  0.001 sec (  1.172%)
 classical contributions        ...        0 min,  0.000 sec (  0.278%)
 integral evaluation            ...        0 min,  0.015 sec ( 15.777%)
 iterations                     ...        0 min,  0.020 sec ( 20.915%)
 molecular gradient             ...        0 min,  0.058 sec ( 60.759%)
 printout                       ...        0 min,  0.001 sec (  0.596%)

         :::::::::::::::::::::::::::::::::::::::::::::::::::::
         ::                     SUMMARY                     ::
         :::::::::::::::::::::::::::::::::::::::::::::::::::::
         :: total energy            -138.931898100963 Eh    ::
         :: gradient norm              0.002389258619 Eh/a0 ::
         :: HOMO-LUMO gap              1.463129077792 eV    ::
         ::.................................................::
         :: SCC energy              -141.215457132994 Eh    ::
         :: -> isotropic ES            0.096446833230 Eh    ::
         :: -> anisotropic ES          0.010298901731 Eh    ::
         :: -> anisotropic XC          0.084981480403 Eh    ::
         :: -> dispersion             -0.117227313356 Eh    ::
         :: repulsion energy           2.283559032030 Eh    ::
         :: add. restraining           0.000000000000 Eh    ::
         :: total charge               0.000000000000 e     ::
         :::::::::::::::::::::::::::::::::::::::::::::::::::::

           -------------------------------------------------
          |                Property Printout                |
           -------------------------------------------------

    * Orbital Energies and Occupations

         #    Occupation            Energy/Eh            Energy/eV
      -------------------------------------------------------------
         1        2.0000           -0.7358945             -20.0247
       ...           ...                  ...                  ...
       115        2.0000           -0.4029513             -10.9649
       116        2.0000           -0.4012641             -10.9190
       117        2.0000           -0.3967603             -10.7964
       118        2.0000           -0.3900211             -10.6130
       119        2.0000           -0.3851685             -10.4810
       120        2.0000           -0.3827979             -10.4165
       121        2.0000           -0.3804639             -10.3529
       122        2.0000           -0.3717223             -10.1151
       123        2.0000           -0.3677396             -10.0067
       124        2.0000           -0.3660561              -9.9609
       125        2.0000           -0.3599319              -9.7942
       126        2.0000           -0.3590542              -9.7704
       127        2.0000           -0.3429953              -9.3334 (HOMO)
       128                         -0.2892263              -7.8702 (LUMO)
       129                         -0.2828034              -7.6955
       130                         -0.2756384              -7.5005
       131                         -0.2525873              -6.8733
       132                         -0.2464831              -6.7071
       133                         -0.2426739              -6.6035
       134                         -0.2399431              -6.5292
       135                         -0.2356002              -6.4110
       136                         -0.2315185              -6.2999
       137                         -0.2146361              -5.8405
       138                         -0.2084017              -5.6709
       ...                                ...                  ...
       242                          0.7478909              20.3511
      -------------------------------------------------------------
                  HL-Gap            0.0537690 Eh            1.4631 eV
             Fermi-level           -0.3161108 Eh           -8.6018 eV

     #   Z          covCN         q      C6AA      α(0)
     1   6 C        3.015    -0.039    28.951     8.826
     2   6 C        3.208     0.136    24.474     8.055
     3   7 N        2.780    -0.118    23.567     7.210
     4   1 H        0.926     0.030     2.583     2.513
     5   1 H        0.923     0.043     2.408     2.427
     6   1 H        0.926     0.040     2.446     2.446
     7   1 H        0.926     0.040     2.449     2.447
     8   6 C        3.021    -0.065    29.597     8.924
     9   6 C        2.972    -0.012    28.302     8.726
    10   1 H        0.926     0.033     2.539     2.492
    11   7 N        1.883    -0.296    28.528     7.918
    12   6 C        2.907     0.063    26.594     8.456
    13   1 H        0.860     0.179     1.220     1.730
    14   1 H        0.926     0.053     2.282     2.362
    15   6 C        2.927    -0.055    29.355     8.885
    16   6 C        2.839    -0.109    30.738     9.086
    17   6 C        3.006     0.005    27.904     8.665
    18   6 C        2.961     0.059    26.679     8.472
    19   1 H        0.926     0.048     2.341     2.393
    20   6 C        2.927    -0.009    28.250     8.716
    21   6 C        3.148    -0.020    28.221     8.690
    22   1 H        0.926     0.037     2.489     2.467
    23   6 C        2.919    -0.037    28.926     8.820
    24   6 C        2.909     0.048    26.916     8.507
    25   6 C        2.829     0.226    23.262     7.903
    26   6 C        3.029    -0.027    28.644     8.779
    27   1 H        0.925     0.041     2.437     2.441
    28   6 C        3.105     0.117    25.297     8.241
    29   7 N        2.641    -0.257    26.683     7.672
    30   6 C        2.934    -0.000    28.036     8.684
    31   6 C        2.986     0.099    25.796     8.331
    32   6 C        2.968     0.017    27.626     8.621
    33   8 O        1.728    -0.193    17.225     5.604
    34   6 C        3.849     0.041    19.855     6.338
    35   6 C        3.102     0.133    24.985     8.191
    36   1 H        0.925     0.051     2.310     2.377
    37   6 C        3.069    -0.008    28.143     8.699
    38   6 C        2.924    -0.037    28.928     8.820
    39   1 H        0.926     0.034     2.534     2.489
    40   6 C        2.963    -0.020    28.515     8.759
    41   7 N        1.841    -0.249    27.332     7.748
    42   1 H        0.925     0.040     2.446     2.446
    43   6 C        3.070    -0.017    28.357     8.732
    44   1 H        0.926     0.059     2.216     2.328
    45   1 H        0.860     0.187     1.176     1.699
    46   8 O        0.858    -0.368    21.060     6.153
    47   1 H        0.860     0.156     1.362     1.828
    48   6 C        2.968    -0.027    28.683     8.785
    49   6 C        2.913     0.062    26.604     8.458
    50   6 C        2.909     0.089    26.025     8.365
    51   6 C        3.000     0.073    26.360     8.422
    52   6 C        3.062     0.070    26.383     8.423
    53   1 H        0.860     0.194     1.138     1.671
    54   1 H        0.924     0.045     2.381     2.413
    55   1 H        0.926     0.039     2.459     2.452
    56   7 N        1.845    -0.240    27.125     7.719
    57   6 C        3.754    -0.110    22.652     6.787
    58   6 C        2.968    -0.010    28.262     8.720
    59   7 N        2.735    -0.154    24.318     7.324
    60   6 C        2.916    -0.033    28.822     8.804
    61   6 C        2.912    -0.037    28.926     8.819
    62   6 C        2.914    -0.039    28.972     8.826
    63   1 H        0.926     0.057     2.240     2.340
    64   1 H        0.926     0.024     2.676     2.558
    65   1 H        0.925     0.046     2.367     2.406
    66   1 H        0.926     0.036     2.508     2.477
    67   6 C        2.964     0.085    26.099     8.380
    68   1 H        0.925     0.040     2.454     2.450
    69   7 N        1.835    -0.208    26.350     7.607
    70   1 H        0.925     0.049     2.336     2.390
    71   1 H        0.926     0.042     2.418     2.432
    72   1 H        0.926     0.040     2.446     2.446
    73   6 C        3.757    -0.109    22.637     6.784
    74   6 C        3.065    -0.014    28.304     8.724
    75   7 N        1.838    -0.272    27.899     7.828
    76   6 C        3.069    -0.011    28.227     8.712
    77   1 H        0.925     0.052     2.294     2.369
    78   6 C        2.910    -0.027    28.674     8.781
    79   1 H        0.925     0.045     2.388     2.416
    80   1 H        0.926     0.042     2.421     2.433
    81   6 C        2.912    -0.035    28.871     8.811
    82   6 C        2.912     0.070    26.438     8.431
    83   6 C        3.212     0.051    26.238     8.337

 Mol. C6AA /au·bohr⁶  :     101400.985217
 Mol. C8AA /au·bohr⁸  :    2533771.293803
 Mol. α(0) /au        :        507.212020


Wiberg/Mayer (AO) data.
largest (>0.10) Wiberg bond orders for each atom

 ---------------------------------------------------------------------------
     #   Z sym  total        # sym  WBO       # sym  WBO       # sym  WBO
 ---------------------------------------------------------------------------
     1   6 C    3.964 --    43 C    1.615    76 C    1.152    39 H    0.972
     2   6 C    3.949 --    11 N    1.497     3 N    1.189    67 C    1.075
     3   7 N    3.565 --     2 C    1.189    35 C    1.189    53 H    0.930
                            11 N    0.110
     4   1 H    0.998 --    16 C    0.976
     5   1 H    0.996 --    34 C    0.951
     6   1 H    0.998 --    20 C    0.969
     7   1 H    0.998 --    38 C    0.969
     8   6 C    3.973 --    28 C    1.557    74 C    1.252    10 H    0.974
     9   6 C    3.982 --    21 C    1.289    60 C    1.282    51 C    1.202
    10   1 H    0.999 --     8 C    0.974
    11   7 N    3.012 --     2 C    1.497    83 C    1.239     3 N    0.110
    12   6 C    3.981 --    56 N    1.456    62 C    1.417    42 H    0.963
                            23 C    0.107
    13   1 H    0.967 --    29 N    0.944
    14   1 H    0.997 --    82 C    0.960
    15   6 C    3.978 --    81 C    1.518    31 C    1.301    66 H    0.969
    16   6 C    3.972 --    17 C    1.833     4 H    0.976    72 H    0.974
    17   6 C    3.983 --    16 C    1.833    26 C    1.096    34 C    0.985
    18   6 C    3.980 --    41 N    1.371    48 C    1.356    25 C    1.007
    19   1 H    0.997 --    52 C    0.964
    20   6 C    3.988 --    23 C    1.462    62 C    1.428     6 H    0.969
    21   6 C    3.983 --     9 C    1.289    37 C    1.225    76 C    1.214
    22   1 H    0.997 --    78 C    0.966
    23   6 C    3.978 --    20 C    1.462    67 C    1.359    44 H    0.967
                            12 C    0.107
    24   6 C    3.978 --    41 N    1.426    40 C    1.422    27 H    0.960
    25   6 C    3.927 --    46 O    1.793    58 C    1.014    18 C    1.007
    26   6 C    3.974 --    78 C    1.354    51 C    1.297    17 C    1.096
    27   1 H    0.997 --    24 C    0.960
    28   6 C    3.907 --     8 C    1.557    33 O    1.092    48 C    1.045
                            52 C    0.134
    29   7 N    3.331 --    50 C    1.224    13 H    0.944    45 H    0.934
    30   6 C    3.985 --    61 C    1.451    58 C    1.391    63 H    0.966
    31   6 C    3.959 --    75 N    1.407    15 C    1.301    43 C    1.061
    32   6 C    3.975 --    37 C    1.407    38 C    1.297    74 C    1.063
    33   8 O    2.429 --    52 C    1.134    28 C    1.092
    34   6 C    3.970 --    57 C    0.988    59 N    0.987    17 C    0.985
                             5 H    0.951
    35   6 C    3.951 --    75 N    1.355    83 C    1.207     3 N    1.189
    36   1 H    0.996 --    73 C    0.971
    37   6 C    3.980 --    32 C    1.407    21 C    1.225    43 C    1.095
    38   6 C    3.987 --    60 C    1.542    32 C    1.297     7 H    0.969
    39   1 H    0.998 --     1 C    0.972
    40   6 C    3.982 --    24 C    1.422    50 C    1.297    73 C    1.026
    41   7 N    3.062 --    24 C    1.426    18 C    1.371
    42   1 H    0.998 --    12 C    0.963
    43   6 C    3.960 --     1 C    1.615    37 C    1.095    31 C    1.061
    44   1 H    0.997 --    23 C    0.967
    45   1 H    0.965 --    29 N    0.934
    46   8 O    2.058 --    25 C    1.793
    47   1 H    0.975 --    59 N    0.946
    48   6 C    3.983 --    18 C    1.356    50 C    1.285    28 C    1.045
    49   6 C    3.979 --    69 N    1.430    61 C    1.422    79 H    0.964
                            58 C    0.108
    50   6 C    3.973 --    40 C    1.297    48 C    1.285    29 N    1.224
    51   6 C    3.959 --    26 C    1.297    59 N    1.232     9 C    1.202
    52   6 C    3.894 --    74 C    1.528    33 O    1.134    19 H    0.964
                            28 C    0.134
    53   1 H    0.962 --     3 N    0.930
    54   1 H    0.997 --    73 C    0.969
    55   1 H    0.998 --    62 C    0.971
    56   7 N    3.046 --    12 C    1.456    67 C    1.369
    57   6 C    3.991 --    34 C    0.988    65 H    0.987    68 H    0.985
                            77 H    0.982
    58   6 C    3.988 --    30 C    1.391    82 C    1.367    25 C    1.014
                            49 C    0.108
    59   7 N    3.397 --    51 C    1.232    34 C    0.987    47 H    0.946
    60   6 C    3.987 --    38 C    1.542     9 C    1.282    64 H    0.969
    61   6 C    3.991 --    30 C    1.451    49 C    1.422    80 H    0.969
                            82 C    0.110
    62   6 C    3.974 --    20 C    1.428    12 C    1.417    55 H    0.971
                            67 C    0.101
    63   1 H    0.997 --    30 C    0.966
    64   1 H    0.998 --    60 C    0.969
    65   1 H    0.998 --    57 C    0.987
    66   1 H    0.998 --    15 C    0.969
    67   6 C    3.980 --    56 N    1.369    23 C    1.359     2 C    1.075
                            62 C    0.101
    68   1 H    0.998 --    57 C    0.985
    69   7 N    3.074 --    82 C    1.459    49 C    1.430
    70   1 H    0.997 --    73 C    0.984
    71   1 H    0.997 --    81 C    0.965
    72   1 H    0.998 --    16 C    0.974
    73   6 C    3.994 --    40 C    1.026    70 H    0.984    36 H    0.971
                            54 H    0.969
    74   6 C    3.980 --    52 C    1.528     8 C    1.252    32 C    1.063
    75   7 N    3.033 --    31 C    1.407    35 C    1.355
    76   6 C    3.981 --    78 C    1.424    21 C    1.214     1 C    1.152
    77   1 H    0.996 --    57 C    0.982
    78   6 C    3.980 --    76 C    1.424    26 C    1.354    22 H    0.966
    79   1 H    0.998 --    49 C    0.964
    80   1 H    0.998 --    61 C    0.969
    81   6 C    3.979 --    15 C    1.518    83 C    1.316    71 H    0.965
    82   6 C    3.978 --    69 N    1.459    58 C    1.367    14 H    0.960
                            61 C    0.110
    83   6 C    3.971 --    81 C    1.316    11 N    1.239    35 C    1.207
 ---------------------------------------------------------------------------

Topologies differ in bond orders
Writing corrected topology to xtbtopo.sdf

molecular dipole:
                 x           y           z       tot (Debye)
 q only:        0.627      -0.167      -0.007
   full:        0.329      -0.614       0.508       2.192
molecular quadrupole (traceless):
                xx          xy          yy          xz          yz          zz
 q only:      -20.238      -6.252     -16.288     -30.255      14.353      36.527
  q+dip:      -25.707      -2.891     -33.119     -37.440      15.260      58.825
   full:      -18.641       1.015     -36.751     -35.408      16.905      55.391

           -------------------------------------------------
          |                Geometry Summary                 |
           -------------------------------------------------

      molecular mass/u    :      690.7523017
   center of mass at/Å    :       -0.1386658       0.0484642       0.1280193
  moments of inertia/u·Å² :        0.1136441E+05   0.1313819E+05   0.2338317E+05
rotational constants/cm⁻¹ :        0.1483371E-02   0.1283102E-02   0.7209300E-03

 * 83 selected distances

     #   Z          #   Z                                           value/Å
     2   6 C        3   7 N                                       1.3705611
     8   6 C       10   1 H                                       1.0708686
     2   6 C       11   7 N                                       1.3123095
     4   1 H       16   6 C                                       1.0761267
    16   6 C       17   6 C                                       1.3296621
     6   1 H       20   6 C                                       1.0806210
     9   6 C       21   6 C                                       1.3965820
    20   6 C       23   6 C                                       1.3818019
    24   6 C       27   1 H                                       1.0827637
     8   6 C       28   6 C                                       1.3654960
    13   1 H       29   7 N                                       1.0045001 (min)
    15   6 C       31   6 C                                       1.4128637
    28   6 C       33   8 O                                       1.3558919
     5   1 H       34   6 C                                       1.0982694
     3   7 N       35   6 C                                       1.3595261
    21   6 C       37   6 C                                       1.4138192
    32   6 C       37   6 C                                       1.3853326
     7   1 H       38   6 C                                       1.0806626
    32   6 C       38   6 C                                       1.4145886
     1   6 C       39   1 H                                       1.0744241
    24   6 C       40   6 C                                       1.3847468
    18   6 C       41   7 N                                       1.3303168
    24   6 C       41   7 N                                       1.3191478
    12   6 C       42   1 H                                       1.0824570
     1   6 C       43   6 C                                       1.3669641
    23   6 C       44   1 H                                       1.0774606
    29   7 N       45   1 H                                       1.0064459
    25   6 C       46   8 O                                       1.2149752
    18   6 C       48   6 C                                       1.3997068
    29   7 N       50   6 C                                       1.3604972
    40   6 C       50   6 C                                       1.4081088
    48   6 C       50   6 C                                       1.4117188
     9   6 C       51   6 C                                       1.4173044
    26   6 C       51   6 C                                       1.4082581
    19   1 H       52   6 C                                       1.0714614
    33   8 O       52   6 C                                       1.3417267
     3   7 N       53   1 H                                       1.0062876
    12   6 C       56   7 N                                       1.3185147
    34   6 C       57   6 C                                       1.5297480 (max)
    30   6 C       58   6 C                                       1.3940312
    34   6 C       59   7 N                                       1.4503600
    47   1 H       59   7 N                                       1.0046438
    51   6 C       59   7 N                                       1.3531356
     9   6 C       60   6 C                                       1.4094324
    38   6 C       60   6 C                                       1.3733236
    30   6 C       61   6 C                                       1.3831115
    49   6 C       61   6 C                                       1.3869250
    12   6 C       62   6 C                                       1.3876122
    20   6 C       62   6 C                                       1.3879914
    55   1 H       62   6 C                                       1.0785572
    30   6 C       63   1 H                                       1.0804983
    60   6 C       64   1 H                                       1.0809961
    57   6 C       65   1 H                                       1.0881116
    15   6 C       66   1 H                                       1.0791916
     2   6 C       67   6 C                                       1.4473912
    23   6 C       67   6 C                                       1.3963369
    56   7 N       67   6 C                                       1.3347142
    57   6 C       68   1 H                                       1.0881775
    49   6 C       69   7 N                                       1.3237541
Note: The following floating-point exceptions are signalling: IEEE_UNDERFLOW_FLAG IEEE_DENORMAL
normal termination of xtb
    16   6 C       72   1 H                                       1.0748216
    36   1 H       73   6 C                                       1.0899146
    54   1 H       73   6 C                                       1.0910447
    70   1 H       73   6 C                                       1.0867806
     8   6 C       74   6 C                                       1.4212867
    52   6 C       74   6 C                                       1.3686177
    31   6 C       75   7 N                                       1.3296906
    35   6 C       75   7 N                                       1.3212621
     1   6 C       76   6 C                                       1.4402781
    21   6 C       76   6 C                                       1.4152425
    57   6 C       77   1 H                                       1.0860408
    22   1 H       78   6 C                                       1.0794284
    26   6 C       78   6 C                                       1.3968271
    76   6 C       78   6 C                                       1.3807926
    49   6 C       79   1 H                                       1.0823847
    61   6 C       80   1 H                                       1.0793049
    15   6 C       81   6 C                                       1.3762759
    71   1 H       81   6 C                                       1.0796679
    14   1 H       82   6 C                                       1.0806619
    58   6 C       82   6 C                                       1.3956614
    69   7 N       82   6 C                                       1.3181966
    11   7 N       83   6 C                                       1.3646192
    35   6 C       83   6 C                                       1.4209684
    81   6 C       83   6 C                                       1.3941794

 * 5 distinct bonds (by element types)

   Z      Z             #   av. dist./Å        max./Å        min./Å
   1 H    6 C          26     1.0815653     1.0982694     1.0708686
   6 C    6 C          35     1.4000853     1.5297480     1.3296621
   1 H    7 N           4     1.0054693     1.0064459     1.0045001
   6 C    7 N          15     1.3444404     1.4503600     1.3123095
   6 C    8 O           3     1.3041980     1.3558919     1.2149752


optimized geometry written to: xtbopt.sdf


           -------------------------------------------------
          | TOTAL ENERGY             -138.931898100963 Eh   |
          | GRADIENT NORM               0.002389258619 Eh/α |
          | HOMO-LUMO GAP               1.463129077792 eV   |
           -------------------------------------------------

------------------------------------------------------------------------
 * finished run on 2026/08/20 at 06:26:10.264     
------------------------------------------------------------------------
 total:
 * wall-time:     0 d,  0 h,  0 min, 11.864 sec
 *  cpu-time:     0 d,  0 h,  0 min, 11.833 sec
 * ratio c/w:     0.997 speedup
 SCF:
 * wall-time:     0 d,  0 h,  0 min,  0.175 sec
 *  cpu-time:     0 d,  0 h,  0 min,  0.175 sec
 * ratio c/w:     1.000 speedup
 ANC optimizer:
 * wall-time:     0 d,  0 h,  0 min, 11.648 sec
 *  cpu-time:     0 d,  0 h,  0 min, 11.635 sec
 * ratio c/w:     0.999 speedup

