      -----------------------------------------------------------      
     |                   =====================                   |     
     |                           x T B                           |     
     |                   =====================                   |     
     |                         S. Grimme                         |     
     |          Mulliken Center for Theoretical Chemistry        |     
     |                    University of Bonn                     |     
      -----------------------------------------------------------      

   * xtb version 6.7.1 (edcfbbe) compiled by 'conda@5dfe00f5fb80' on 2026-06-10

   xtb is free software: you can redistribute it and/or modify it under
   the terms of the GNU Lesser General Public License as published by
   the Free Software Foundation, either version 3 of the License, or
   (at your option) any later version.
   
   xtb is distributed in the hope that it will be useful,
   but WITHOUT ANY WARRANTY; without even the implied warranty of
   MERCHANTABILITY or FITNESS FOR A PARTICULAR PURPOSE.  See the
   GNU Lesser General Public License for more details.
   
   Cite this work as:
   * C. Bannwarth, E. Caldeweyher, S. Ehlert, A. Hansen, P. Pracht,
     J. Seibert, S. Spicher, S. Grimme, WIREs Comput. Mol. Sci., 2020, 11,
     e01493. DOI: 10.1002/wcms.1493
   
   for GFN2-xTB:
   * C. Bannwarth, S. Ehlert and S. Grimme., J. Chem. Theory Comput., 2019,
     15, 1652-1671. DOI: 10.1021/acs.jctc.8b01176
   for GFN1-xTB:
   * S. Grimme, C. Bannwarth, P. Shushkov, J. Chem. Theory Comput., 2017,
     13, 1989-2009. DOI: 10.1021/acs.jctc.7b00118
   for GFN0-xTB:
   * P. Pracht, E. Caldeweyher, S. Ehlert, S. Grimme, ChemRxiv, 2019, preprint.
     DOI: 10.26434/chemrxiv.8326202.v1
   for GFN-FF:
   * S. Spicher and S. Grimme, Angew. Chem. Int. Ed., 2020, 59, 15665-15673.
     DOI: 10.1002/anie.202004239
   
   for ALPB and GBSA implicit solvation:
   * S. Ehlert, M. Stahn, S. Spicher, S. Grimme, J. Chem. Theory Comput.,
     2021, 17, 4250-4261. DOI: 10.1021/acs.jctc.1c00471
   
   for ddCOSMO and CPCM-X implicit solvation:
   * M. Stahn, S. Ehlert, S. Grimme, J. Phys. Chem. A,
     2023, XX, XXXX-XXXX. DOI: 10.1021/acs.jpca.3c04382
   
   for DFT-D4:
   * E. Caldeweyher, C. Bannwarth and S. Grimme, J. Chem. Phys., 2017,
     147, 034112. DOI: 10.1063/1.4993215
   * E. Caldeweyher, S. Ehlert, A. Hansen, H. Neugebauer, S. Spicher,
     C. Bannwarth and S. Grimme, J. Chem. Phys., 2019, 150, 154122.
     DOI: 10.1063/1.5090222
   * E. Caldeweyher, J.-M. Mewes, S. Ehlert and S. Grimme, Phys. Chem. Chem. Phys.
     2020, 22, 8499-8512. DOI: 10.1039/D0CP00502A
   
   for sTDA-xTB:
   * S. Grimme and C. Bannwarth, J. Chem. Phys., 2016, 145, 054103.
     DOI: 10.1063/1.4959605
   
   in the mass-spec context:
   * V. Asgeirsson, C. Bauer and S. Grimme, Chem. Sci., 2017, 8, 4879.
     DOI: 10.1039/c7sc00601b
   * J. Koopman and S. Grimme, ACS Omega 2019, 4, 12, 15120-15133.
     DOI: 10.1021/acsomega.9b02011
   
   for metadynamics refer to:
   * S. Grimme, J. Chem. Theory Comput., 2019, 155, 2847-2862
     DOI: 10.1021/acs.jctc.9b00143
   
   for SPH calculations refer to:
   * S. Spicher and S. Grimme, J. Chem. Theory Comput., 2021, 17, 1701-1714
     DOI: 10.1021/acs.jctc.0c01306
   
   for ONIOM refer to:
   * C. Plett, A. Katbashev, S. Ehlert, S. Grimme, M. Bursch,
     Phys. Chem. Chem. Phys., 2023, 25, 17860-17868. DOI: 10.1039/D3CP02178E
   
   for DIPRO refer to:
   * J. Kohn, N. Gildemeister, S. Grimme, D. Fazzi, A. Hansen,
     J. Chem. Phys., 2023, just accepted.
   
   for PTB refer to:
   * S. Grimme, M. Mueller, A. Hansen, J. Chem. Phys., 2023, 158, 124111.
     DOI: 10.1063/5.0137838
   
   with help from (in alphabetical order)
   P. Atkinson, C. Bannwarth, F. Bohle, G. Brandenburg, E. Caldeweyher
   M. Checinski, S. Dohm, S. Ehlert, S. Ehrlich, I. Gerasimov, C. Hölzer
   A. Katbashev, J. Kohn, J. Koopman, C. Lavigne, S. Lehtola, F. März, M. Müller,
   F. Musil, H. Neugebauer, J. Pisarek, C. Plett, P. Pracht, F. Pultar,
   J. Seibert, P. Shushkov, S. Spicher, M. Stahn, M. Steiner, T. Strunk,
   J. Stückrath, T. Rose, and J. Unsleber
   
 * started run on 2026/08/25 at 07:09:58.343     
   ID    Z sym.   atoms
    1    1 H      1, 3, 4, 6, 10, 14, 15, 18, 25, 28, 31, 44, 49, 57-59
    2    6 C      2, 5, 7, 11, 13, 16, 17, 19, 21-24, 26, 27, 29, 30, 32-34,
                  36, 38-42, 45, 47, 48, 50-56
    3    7 N      8, 9, 12, 20, 35, 37, 43, 46

           -------------------------------------------------
          |                Calculation Setup                |
           -------------------------------------------------

          program call               : xtb 00019.sdf --opt loose --cycles 500
          coordinate file            : 00019.sdf
          omp threads                :                     1


           -------------------------------------------------
          |                 G F N 2 - x T B                 |
           -------------------------------------------------

        Reference                      10.1021/acs.jctc.8b01176
      * Hamiltonian:
        H0-scaling (s, p, d)           1.850000    2.230000    2.230000
        zeta-weighting                 0.500000
      * Dispersion:
        s8                             2.700000
        a1                             0.520000
        a2                             5.000000
        s9                             5.000000
      * Repulsion:
        kExp                           1.500000    1.000000
        rExp                           1.000000
      * Coulomb:
        alpha                          2.000000
        third order                    shell-resolved
        anisotropic                    true
        a3                             3.000000
        a5                             4.000000
        cn-shift                       1.200000
        cn-exp                         4.000000
        max-rad                        5.000000


          ...................................................
          :                      SETUP                      :
          :.................................................:
          :  # basis functions                 188          :
          :  # atomic orbitals                 188          :
          :  # shells                          102          :
          :  # electrons                       196          :
          :  max. iterations                   250          :
          :  Hamiltonian                  GFN2-xTB          :
          :  restarted?                      false          :
          :  GBSA solvation                  false          :
          :  PC potential                    false          :
          :  electronic temp.          300.0000000     K    :
          :  accuracy                    1.0000000          :
          :  -> integral cutoff          0.2500000E+02      :
          :  -> integral neglect         0.1000000E-07      :
          :  -> SCF convergence          0.1000000E-05 Eh   :
          :  -> wf. convergence          0.1000000E-03 e    :
          :  Broyden damping             0.4000000          :
          :  net charge                          0          :
          :  unpaired electrons                  0          :
          ...................................................

 iter      E             dE          RMSdq      gap      omega  full diag
   1   -107.6205803 -0.107621E+03  0.487E+00    0.35       0.0  T
   2   -107.3101816  0.310399E+00  0.358E+00    0.56       1.0  T
   3   -107.4527810 -0.142599E+00  0.267E+00    1.09       1.0  T
   4   -107.5034448 -0.506638E-01  0.163E+00    0.20       1.0  T
   5   -107.7968712 -0.293426E+00  0.998E-01    0.37       1.0  T
   6   -107.8332409 -0.363697E-01  0.661E-01    0.26       1.0  T
   7   -107.8240050  0.923592E-02  0.804E-01    0.59       1.0  T
   8   -107.8533773 -0.293723E-01  0.550E-01    0.47       1.0  T
   9   -107.8688252 -0.154479E-01  0.380E-01    0.35       1.0  T
  10   -107.8800351 -0.112100E-01  0.147E-01    0.27       1.0  T
  11   -107.8806767 -0.641528E-03  0.861E-02    0.22       1.0  T
  12   -107.8806856 -0.896301E-05  0.827E-02    0.26       1.0  T
  13   -107.8808273 -0.141635E-03  0.782E-02    0.23       1.0  T
  14   -107.8814798 -0.652595E-03  0.178E-02    0.24       1.0  T
  15   -107.8815103 -0.304216E-04  0.321E-03    0.24       4.1  T
  16   -107.8815109 -0.634099E-06  0.115E-03    0.24      11.3  T
  17   -107.8815098  0.113794E-05  0.317E-03    0.24       4.1  T
  18   -107.8815110 -0.120004E-05  0.311E-04    0.24      41.9  T
  19   -107.8815110 -0.557131E-08  0.129E-04    0.24     100.7  T
  20   -107.8815110  0.368961E-08  0.209E-04    0.24      62.1  T

   *** convergence criteria satisfied after 20 iterations ***

         #    Occupation            Energy/Eh            Energy/eV
      -------------------------------------------------------------
         1        2.0000           -0.6934527             -18.8698
       ...           ...                  ...                  ...
        92        2.0000           -0.4041916             -10.9986
        93        2.0000           -0.3791339             -10.3168
        94        2.0000           -0.3751658             -10.2088
        95        2.0000           -0.3742475             -10.1838
        96        2.0000           -0.3666198              -9.9762
        97        2.0000           -0.3662026              -9.9649
        98        1.9800           -0.3541351              -9.6365 (HOMO)
        99        0.0200           -0.3454036              -9.3989 (LUMO)
       100                         -0.2990318              -8.1371
       101                         -0.2941472              -8.0042
       102                         -0.2826553              -7.6914
       103                         -0.2784044              -7.5758
       ...                                ...                  ...
       188                          0.9888395              26.9077
      -------------------------------------------------------------
                  HL-Gap            0.0087315 Eh            0.2376 eV
             Fermi-level           -0.3497693 Eh           -9.5177 eV

 SCC (total)                   0 d,  0 h,  0 min,  0.144 sec
 SCC setup                      ...        0 min,  0.001 sec (  0.356%)
 Dispersion                     ...        0 min,  0.001 sec (  0.744%)
 classical contributions        ...        0 min,  0.000 sec (  0.107%)
 integral evaluation            ...        0 min,  0.012 sec (  8.397%)
 iterations                     ...        0 min,  0.090 sec ( 62.633%)
 molecular gradient             ...        0 min,  0.039 sec ( 27.481%)
 printout                       ...        0 min,  0.000 sec (  0.275%)

         :::::::::::::::::::::::::::::::::::::::::::::::::::::
         ::                     SUMMARY                     ::
         :::::::::::::::::::::::::::::::::::::::::::::::::::::
         :: total energy            -106.241769783040 Eh    ::
         :: gradient norm              0.264978894113 Eh/a0 ::
         :: HOMO-LUMO gap              0.237596620447 eV    ::
         ::.................................................::
         :: SCC energy              -107.879677488137 Eh    ::
         :: -> isotropic ES            0.064056669344 Eh    ::
         :: -> anisotropic ES          0.005354349002 Eh    ::
         :: -> anisotropic XC          0.102052131417 Eh    ::
         :: -> dispersion             -0.089962233367 Eh    ::
         :: repulsion energy           1.637907705097 Eh    ::
         :: add. restraining           0.000000000000 Eh    ::
         :: total charge               0.000000000000 e     ::
         :::::::::::::::::::::::::::::::::::::::::::::::::::::

      ----------------------------------------------------------- 
     |                   =====================                   |
     |                        A N C O P T                        |
     |                   =====================                   |
     |               Approximate Normal Coordinate               |
     |                Rational Function Optimizer                |
      ----------------------------------------------------------- 
      ----------------------------------------------------------- 
     |                   =====================                   |
     |                        A N C O P T                        |
     |                   =====================                   |
     |               Approximate Normal Coordinate               |
     |                Rational Function Optimizer                |
      ----------------------------------------------------------- 

          ...................................................
          :                      SETUP                      :
          :.................................................:
          :   optimization level             loose          :
          :   max. optcycles                   500          :
          :   ANC micro-cycles                  20          :
          :   degrees of freedom               171          :
          :.................................................:
          :   RF solver                   davidson          :
          :   write xtbopt.log                true          :
          :   linear?                        false          :
          :   energy convergence         0.5000000E-04 Eh   :
          :   grad. convergence          0.4000000E-02 Eh/α :
          :   maxmium RF displ.          1.0000000          :
          :   Hlow (freq-cutoff)         0.1000000E-01      :
          :   Hmax (freq-cutoff)         5.0000000          :
          :   S6 in model hess.         20.0000000          :
          ...................................................

generating ANC from exact Hessian ...
Using Lindh-Hessian (1995)
 Shifting diagonal of input Hessian by    9.6975807630722451E-003
 Lowest  eigenvalues of input Hessian
    0.000000    0.000000    0.000000    0.000000    0.000000    0.000000
    0.010000    0.010231    0.010297    0.010644    0.010972    0.011471
    0.012121    0.012548    0.013132    0.014372    0.014612    0.015112
 Highest eigenvalues
    2.035589    2.091295    2.121923    2.181574    2.196580    2.373520


........................................................................
.............................. CYCLE    1 ..............................
........................................................................

 iter      E             dE          RMSdq      gap      omega  full diag
   1   -107.8815110 -0.107882E+03  0.595E-05    0.24       0.0  T
   2   -107.8815110  0.161536E-07  0.369E-04    0.24      35.3  T
   3   -107.8815110 -0.164412E-07  0.255E-05    0.24     509.7  T
     SCC iter.                  ...        0 min,  0.013 sec
     gradient                   ...        0 min,  0.042 sec
 * total energy  :  -106.2417698 Eh     change       -0.4845845E-08 Eh
   gradient norm :     0.2649774 Eh/α   predicted     0.0000000E+00 (-100.00%)
   displ. norm   :     0.5579665 α      lambda       -0.9764428E-01
   maximum displ.:     0.1578224 α      in ANC's #23, #18, #90, ...

........................................................................
.............................. CYCLE    2 ..............................
........................................................................

 iter      E             dE          RMSdq      gap      omega  full diag
   1   -108.0221026 -0.108022E+03  0.386E-01    0.31       0.0  T
   2   -108.0226236 -0.520945E-03  0.252E-01    0.31       1.0  T
   3   -108.0218679  0.755690E-03  0.177E-01    0.30       1.0  T
   4   -108.0102897  0.115782E-01  0.336E-01    0.28       1.0  T
   5   -108.0223364 -0.120467E-01  0.954E-02    0.33       1.0  T
   6   -108.0234245 -0.108806E-02  0.167E-02    0.31       1.0  T
   7   -108.0234407 -0.162957E-04  0.616E-03    0.30       2.1  T
   8   -108.0234389  0.186085E-05  0.602E-03    0.30       2.2  T
   9   -108.0234413 -0.242059E-05  0.296E-03    0.30       4.4  T
  10   -108.0234420 -0.694258E-06  0.960E-04    0.30      13.6  T
  11   -108.0234421 -0.880133E-07  0.255E-04    0.30      51.1  T
     SCC iter.                  ...        0 min,  0.042 sec
     gradient                   ...        0 min,  0.037 sec
 * total energy  :  -106.3170770 Eh     change       -0.7530717E-01 Eh
   gradient norm :     0.1368164 Eh/α   predicted    -0.6410217E-01 ( -14.88%)
   displ. norm   :     0.6363850 α      lambda       -0.5515873E-01
   maximum displ.:     0.2227124 α      in ANC's #23, #18, #26, ...

........................................................................
.............................. CYCLE    3 ..............................
........................................................................

 iter      E             dE          RMSdq      gap      omega  full diag
   1   -108.1357614 -0.108136E+03  0.358E-01    0.39       0.0  T
   2   -108.1342680  0.149339E-02  0.272E-01    0.46       1.0  T
   3   -108.1152371  0.190309E-01  0.449E-01    0.34       1.0  T
   4   -108.1325909 -0.173538E-01  0.229E-01    0.46       1.0  T
   5   -108.1367181 -0.412721E-02  0.715E-02    0.44       1.0  T
   6   -108.1372474 -0.529376E-03  0.268E-02    0.41       1.0  T
   7   -108.1373044 -0.569150E-04  0.103E-02    0.41       1.3  T
   8   -108.1373086 -0.426785E-05  0.580E-03    0.41       2.2  T
   9   -108.1373092 -0.572052E-06  0.211E-03    0.41       6.2  T
  10   -108.1373094 -0.247214E-06  0.665E-04    0.41      19.6  T
  11   -108.1373095 -0.308815E-07  0.266E-04    0.41      48.9  T
     SCC iter.                  ...        0 min,  0.042 sec
     gradient                   ...        0 min,  0.037 sec
 * total energy  :  -106.3550262 Eh     change       -0.3794928E-01 Eh
   gradient norm :     0.0535410 Eh/α   predicted    -0.3874864E-01 (   2.11%)
   displ. norm   :     0.6733555 α      lambda       -0.2318608E-01
   maximum displ.:     0.2930530 α      in ANC's #18, #23, #19, ...

........................................................................
.............................. CYCLE    4 ..............................
........................................................................

 iter      E             dE          RMSdq      gap      omega  full diag
   1   -108.1945295 -0.108195E+03  0.287E-01    0.45       0.0  T
   2   -108.1944863  0.432151E-04  0.176E-01    0.47       1.0  T
   3   -108.1898002  0.468611E-02  0.216E-01    0.40       1.0  T
   4   -108.1927052 -0.290501E-02  0.142E-01    0.49       1.0  T
   5   -108.1947083 -0.200319E-02  0.178E-02    0.46       1.0  T
   6   -108.1947334 -0.250206E-04  0.576E-03    0.46       2.3  T
   7   -108.1947346 -0.127429E-05  0.255E-03    0.46       5.1  T
   8   -108.1947348 -0.163685E-06  0.115E-03    0.46      11.3  T
   9   -108.1947349 -0.727765E-07  0.375E-04    0.46      34.8  T
  10   -108.1947349 -0.601239E-08  0.171E-04    0.46      75.9  T
     SCC iter.                  ...        0 min,  0.044 sec
     gradient                   ...        0 min,  0.044 sec
 * total energy  :  -106.3736459 Eh     change       -0.1861964E-01 Eh
   gradient norm :     0.0419117 Eh/α   predicted    -0.1684950E-01 (  -9.51%)
   displ. norm   :     0.7066503 α      lambda       -0.1606749E-01
   maximum displ.:     0.3415742 α      in ANC's #18, #23, #19, ...

........................................................................
.............................. CYCLE    5 ..............................
........................................................................

 iter      E             dE          RMSdq      gap      omega  full diag
   1   -108.2291781 -0.108229E+03  0.302E-01    0.48       0.0  T
   2   -108.2291799 -0.176461E-05  0.181E-01    0.49       1.0  T
   3   -108.2261090  0.307084E-02  0.170E-01    0.44       1.0  T
   4   -108.2283645 -0.225543E-02  0.985E-02    0.51       1.0  T
   5   -108.2293083 -0.943864E-03  0.129E-02    0.49       1.0  T
   6   -108.2293168 -0.850367E-05  0.592E-03    0.48       2.2  T
   7   -108.2293173 -0.439827E-06  0.290E-03    0.48       4.5  T
   8   -108.2293178 -0.477922E-06  0.892E-04    0.48      14.6  T
   9   -108.2293178 -0.374131E-07  0.349E-04    0.48      37.3  T
     SCC iter.                  ...        0 min,  0.034 sec
     gradient                   ...        0 min,  0.037 sec
 * total energy  :  -106.3860582 Eh     change       -0.1241236E-01 Eh
   gradient norm :     0.0253105 Eh/α   predicted    -0.1204544E-01 (  -2.96%)
   displ. norm   :     0.6468259 α      lambda       -0.8749016E-02
   maximum displ.:     0.3175496 α      in ANC's #18, #23, #19, ...

........................................................................
.............................. CYCLE    6 ..............................
........................................................................

 iter      E             dE          RMSdq      gap      omega  full diag
   1   -108.2465992 -0.108247E+03  0.295E-01    0.49       0.0  T
   2   -108.2465545  0.446960E-04  0.174E-01    0.51       1.0  T
   3   -108.2398086  0.674585E-02  0.250E-01    0.44       1.0  T
   4   -108.2464944 -0.668577E-02  0.502E-02    0.51       1.0  T
   5   -108.2467026 -0.208219E-03  0.119E-02    0.50       1.1  T
   6   -108.2467106 -0.801482E-05  0.557E-03    0.50       2.3  T
   7   -108.2467111 -0.468622E-06  0.293E-03    0.50       4.4  T
   8   -108.2467116 -0.465588E-06  0.102E-03    0.50      12.8  T
   9   -108.2467116 -0.606909E-07  0.380E-04    0.50      34.3  T
  10   -108.2467116 -0.664100E-08  0.143E-04    0.50      90.9  T
     SCC iter.                  ...        0 min,  0.040 sec
     gradient                   ...        0 min,  0.035 sec
 * total energy  :  -106.3925223 Eh     change       -0.6464063E-02 Eh
   gradient norm :     0.0251299 Eh/α   predicted    -0.6204732E-02 (  -4.01%)
   displ. norm   :     0.6304256 α      lambda       -0.5756764E-02
   maximum displ.:     0.2944946 α      in ANC's #18, #6, #19, ...

........................................................................
.............................. CYCLE    7 ..............................
........................................................................

 iter      E             dE          RMSdq      gap      omega  full diag
   1   -108.2528392 -0.108253E+03  0.391E-01    0.50       0.0  T
   2   -108.2528987 -0.594323E-04  0.223E-01    0.51       1.0  T
   3   -108.2514872  0.141149E-02  0.138E-01    0.48       1.0  T
   4   -108.2524025 -0.915300E-03  0.781E-02    0.52       1.0  T
   5   -108.2530015 -0.599018E-03  0.112E-02    0.50       1.2  T
   6   -108.2530040 -0.253286E-05  0.531E-03    0.50       2.5  T
   7   -108.2530046 -0.617184E-06  0.208E-03    0.50       6.3  T
   8   -108.2530049 -0.262231E-06  0.640E-04    0.50      20.3  T
   9   -108.2530049 -0.143686E-07  0.319E-04    0.50      40.9  T
     SCC iter.                  ...        0 min,  0.037 sec
     gradient                   ...        0 min,  0.035 sec
 * total energy  :  -106.3950971 Eh     change       -0.2574798E-02 Eh
   gradient norm :     0.0323304 Eh/α   predicted    -0.4022383E-02 (  56.22%)
   displ. norm   :     0.5515716 α      lambda       -0.6196471E-02
   maximum displ.:     0.2181584 α      in ANC's #3, #6, #8, ...

........................................................................
.............................. CYCLE    8 ..............................
........................................................................

 iter      E             dE          RMSdq      gap      omega  full diag
   1   -108.2595852 -0.108260E+03  0.416E-01    0.50       0.0  T
   2   -108.2596575 -0.723035E-04  0.234E-01    0.50       1.0  T
   3   -108.2548381  0.481942E-02  0.218E-01    0.46       1.0  T
   4   -108.2595203 -0.468219E-02  0.567E-02    0.51       1.0  T
   5   -108.2597969 -0.276634E-03  0.111E-02    0.50       1.2  T
   6   -108.2597996 -0.268314E-05  0.525E-03    0.50       2.5  T
   7   -108.2597997 -0.923437E-07  0.268E-03    0.50       4.9  T
   8   -108.2598004 -0.689791E-06  0.722E-04    0.50      18.0  T
   9   -108.2598004 -0.168195E-07  0.342E-04    0.50      38.0  T
     SCC iter.                  ...        0 min,  0.039 sec
     gradient                   ...        0 min,  0.035 sec
 * total energy  :  -106.3983435 Eh     change       -0.3246431E-02 Eh
   gradient norm :     0.0262558 Eh/α   predicted    -0.4040820E-02 (  24.47%)
   displ. norm   :     0.3723893 α      lambda       -0.2337634E-02
   maximum displ.:     0.1931130 α      in ANC's #6, #11, #3, ...

........................................................................
.............................. CYCLE    9 ..............................
........................................................................

 iter      E             dE          RMSdq      gap      omega  full diag
   1   -108.2626052 -0.108263E+03  0.157E-01    0.50       0.0  T
   2   -108.2626144 -0.922657E-05  0.916E-02    0.50       1.0  T
   3   -108.2621240  0.490425E-03  0.727E-02    0.52       1.0  T
   4   -108.2625414 -0.417350E-03  0.298E-02    0.49       1.0  T
   5   -108.2626300 -0.886119E-04  0.526E-03    0.50       2.5  T
   6   -108.2626313 -0.134631E-05  0.217E-03    0.50       6.0  T
   7   -108.2626314 -0.937428E-07  0.990E-04    0.50      13.2  T
   8   -108.2626315 -0.567268E-07  0.284E-04    0.50      45.8  T
     SCC iter.                  ...        0 min,  0.033 sec
     gradient                   ...        0 min,  0.037 sec
 * total energy  :  -106.4001551 Eh     change       -0.1811580E-02 Eh
   gradient norm :     0.0164493 Eh/α   predicted    -0.1330919E-02 ( -26.53%)
   displ. norm   :     0.6260978 α      lambda       -0.3084025E-02
   maximum displ.:     0.2876689 α      in ANC's #6, #3, #11, ...

........................................................................
.............................. CYCLE   10 ..............................
........................................................................

 iter      E             dE          RMSdq      gap      omega  full diag
   1   -108.2611088 -0.108261E+03  0.267E-01    0.50       0.0  T
   2   -108.2610556  0.532792E-04  0.155E-01    0.49       1.0  T
   3   -108.2567083  0.434722E-02  0.216E-01    0.56       1.0  T
   4   -108.2611355 -0.442714E-02  0.284E-02    0.50       1.0  T
   5   -108.2611989 -0.634076E-04  0.106E-02    0.50       1.2  T
   6   -108.2612041 -0.524633E-05  0.440E-03    0.50       3.0  T
   7   -108.2612046 -0.478771E-06  0.202E-03    0.50       6.4  T
   8   -108.2612049 -0.303265E-06  0.570E-04    0.50      22.9  T
   9   -108.2612049 -0.147496E-07  0.280E-04    0.50      46.4  T
     SCC iter.                  ...        0 min,  0.034 sec
     gradient                   ...        0 min,  0.039 sec
 * total energy  :  -106.4020970 Eh     change       -0.1941904E-02 Eh
   gradient norm :     0.0155184 Eh/α   predicted    -0.2146486E-02 (  10.54%)
   displ. norm   :     0.5454391 α      lambda       -0.1844723E-02
   maximum displ.:     0.2561632 α      in ANC's #6, #11, #3, ...

........................................................................
.............................. CYCLE   11 ..............................
........................................................................

 iter      E             dE          RMSdq      gap      omega  full diag
   1   -108.2615804 -0.108262E+03  0.220E-01    0.50       0.0  T
   2   -108.2615491  0.312384E-04  0.129E-01    0.49       1.0  T
   3   -108.2587124  0.283677E-02  0.173E-01    0.55       1.0  T
   4   -108.2615957 -0.288329E-02  0.195E-02    0.50       1.0  T
   5   -108.2616245 -0.288416E-04  0.711E-03    0.50       1.8  T
   6   -108.2616268 -0.231892E-05  0.315E-03    0.50       4.1  T
   7   -108.2616271 -0.318434E-06  0.120E-03    0.50      10.8  T
   8   -108.2616272 -0.833523E-07  0.351E-04    0.50      37.1  T
   9   -108.2616272 -0.601857E-08  0.175E-04    0.50      74.3  T
     SCC iter.                  ...        0 min,  0.034 sec
     gradient                   ...        0 min,  0.036 sec
 * total energy  :  -106.4032544 Eh     change       -0.1157417E-02 Eh
   gradient norm :     0.0178504 Eh/α   predicted    -0.1196770E-02 (   3.40%)
   displ. norm   :     0.5031269 α      lambda       -0.1558567E-02
   maximum displ.:     0.2308112 α      in ANC's #6, #3, #8, ...

........................................................................
.............................. CYCLE   12 ..............................
........................................................................

 iter      E             dE          RMSdq      gap      omega  full diag
   1   -108.2648013 -0.108265E+03  0.187E-01    0.50       0.0  T
   2   -108.2648032 -0.190742E-05  0.108E-01    0.50       1.0  T
   3   -108.2637094  0.109384E-02  0.109E-01    0.53       1.0  T
   4   -108.2647686 -0.105921E-02  0.266E-02    0.50       1.0  T
   5   -108.2648347 -0.661798E-04  0.617E-03    0.50       2.1  T
   6   -108.2648362 -0.144783E-05  0.362E-03    0.50       3.6  T
   7   -108.2648369 -0.691984E-06  0.950E-04    0.50      13.7  T
   8   -108.2648369 -0.474167E-07  0.354E-04    0.50      36.8  T
     SCC iter.                  ...        0 min,  0.034 sec
     gradient                   ...        0 min,  0.043 sec
 * total energy  :  -106.4042182 Eh     change       -0.9637909E-03 Eh
   gradient norm :     0.0208468 Eh/α   predicted    -0.9765509E-03 (   1.32%)
   displ. norm   :     0.4759291 α      lambda       -0.1276628E-02
   maximum displ.:     0.2135476 α      in ANC's #1, #6, #3, ...

........................................................................
.............................. CYCLE   13 ..............................
........................................................................

 iter      E             dE          RMSdq      gap      omega  full diag
   1   -108.2765338 -0.108277E+03  0.154E-01    0.51       0.0  T
   2   -108.2765300  0.377284E-05  0.904E-02    0.52       1.0  T
   3   -108.2756177  0.912331E-03  0.946E-02    0.49       1.0  T
   4   -108.2764471 -0.829417E-03  0.357E-02    0.52       1.0  T
   5   -108.2765594 -0.112299E-03  0.463E-03    0.52       2.8  T
   6   -108.2765599 -0.526842E-06  0.264E-03    0.51       4.9  T
   7   -108.2765602 -0.217352E-06  0.114E-03    0.51      11.4  T
   8   -108.2765602 -0.591520E-07  0.376E-04    0.51      34.7  T
   9   -108.2765602 -0.661747E-08  0.134E-04    0.51      97.1  T
     SCC iter.                  ...        0 min,  0.036 sec
     gradient                   ...        0 min,  0.035 sec
 * total energy  :  -106.4048781 Eh     change       -0.6598946E-03 Eh
   gradient norm :     0.0231368 Eh/α   predicted    -0.7829004E-03 (  18.64%)
   displ. norm   :     0.5394761 α      lambda       -0.1454015E-02
   maximum displ.:     0.2122125 α      in ANC's #3, #6, #8, ...

........................................................................
.............................. CYCLE   14 ..............................
........................................................................

 iter      E             dE          RMSdq      gap      omega  full diag
   1   -108.2613157 -0.108261E+03  0.223E-01    0.53       0.0  T
   2   -108.2612840  0.317019E-04  0.131E-01    0.54       1.0  T
   3   -108.2574645  0.381944E-02  0.193E-01    0.48       1.0  T
   4   -108.2612684 -0.380388E-02  0.391E-02    0.54       1.0  T
   5   -108.2613886 -0.120189E-03  0.932E-03    0.53       1.4  T
   6   -108.2613938 -0.519408E-05  0.410E-03    0.53       3.2  T
   7   -108.2613940 -0.207483E-06  0.191E-03    0.53       6.8  T
   8   -108.2613942 -0.168497E-06  0.707E-04    0.53      18.4  T
   9   -108.2613942 -0.315962E-07  0.233E-04    0.53      55.8  T
     SCC iter.                  ...        0 min,  0.037 sec
     gradient                   ...        0 min,  0.035 sec
 * total energy  :  -106.4050361 Eh     change       -0.1580081E-03 Eh
   gradient norm :     0.0316597 Eh/α   predicted    -0.9385953E-03 ( 494.02%)
   displ. norm   :     0.1673144 α      lambda       -0.1345476E-02
   maximum displ.:     0.0960948 α      in ANC's #1, #7, #4, ...

........................................................................
.............................. CYCLE   15 ..............................
........................................................................

 iter      E             dE          RMSdq      gap      omega  full diag
   1   -108.2759971 -0.108276E+03  0.857E-02    0.53       0.0  T
   2   -108.2759943  0.281556E-05  0.515E-02    0.52       1.0  T
   3   -108.2755539  0.440318E-03  0.685E-02    0.54       1.0  T
   4   -108.2759706 -0.416638E-03  0.236E-02    0.52       1.0  T
   5   -108.2760179 -0.472917E-04  0.456E-03    0.52       2.9  T
   6   -108.2760188 -0.885145E-06  0.201E-03    0.52       6.5  T
   7   -108.2760188 -0.485122E-07  0.994E-04    0.52      13.1  T
   8   -108.2760189 -0.615942E-07  0.334E-04    0.52      39.0  T
     SCC iter.                  ...        0 min,  0.035 sec
     gradient                   ...        0 min,  0.036 sec
 * total energy  :  -106.4056855 Eh     change       -0.6494309E-03 Eh
   gradient norm :     0.0113887 Eh/α   predicted    -0.6915719E-03 (   6.49%)
   displ. norm   :     0.2586584 α      lambda       -0.6028602E-03
   maximum displ.:     0.1371780 α      in ANC's #1, #3, #4, ...

........................................................................
.............................. CYCLE   16 ..............................
........................................................................

 iter      E             dE          RMSdq      gap      omega  full diag
   1   -108.2783136 -0.108278E+03  0.887E-02    0.52       0.0  T
   2   -108.2783137 -0.942918E-07  0.522E-02    0.52       1.0  T
   3   -108.2780904  0.223294E-03  0.497E-02    0.54       1.0  T
   4   -108.2783042 -0.213819E-03  0.135E-02    0.52       1.0  T
   5   -108.2783204 -0.162197E-04  0.350E-03    0.52       3.7  T
   6   -108.2783210 -0.530644E-06  0.130E-03    0.52      10.0  T
   7   -108.2783210 -0.623508E-07  0.517E-04    0.52      25.2  T
   8   -108.2783210 -0.137365E-07  0.209E-04    0.52      62.2  T
     SCC iter.                  ...        0 min,  0.032 sec
     gradient                   ...        0 min,  0.040 sec
 * total energy  :  -106.4059274 Eh     change       -0.2418649E-03 Eh
   gradient norm :     0.0132085 Eh/α   predicted    -0.3215977E-03 (  32.97%)
   displ. norm   :     0.2853831 α      lambda       -0.4148268E-03
   maximum displ.:     0.1591310 α      in ANC's #1, #3, #4, ...

........................................................................
.............................. CYCLE   17 ..............................
........................................................................

 iter      E             dE          RMSdq      gap      omega  full diag
   1   -108.2763204 -0.108276E+03  0.793E-02    0.53       0.0  T
   2   -108.2763163  0.409654E-05  0.470E-02    0.53       1.0  T
   3   -108.2759475  0.368854E-03  0.614E-02    0.51       1.0  T
   4   -108.2763170 -0.369514E-03  0.994E-03    0.53       1.3  T
   5   -108.2763258 -0.884964E-05  0.203E-03    0.53       6.4  T
   6   -108.2763260 -0.151097E-06  0.929E-04    0.53      14.0  T
   7   -108.2763260 -0.167940E-07  0.381E-04    0.53      34.2  T
     SCC iter.                  ...        0 min,  0.027 sec
     gradient                   ...        0 min,  0.041 sec
 * total energy  :  -106.4062516 Eh     change       -0.3241420E-03 Eh
   gradient norm :     0.0080361 Eh/α   predicted    -0.2243080E-03 ( -30.80%)
   displ. norm   :     0.4760525 α      lambda       -0.5801362E-03
   maximum displ.:     0.2802188 α      in ANC's #1, #4, #3, ...

........................................................................
.............................. CYCLE   18 ..............................
........................................................................

 iter      E             dE          RMSdq      gap      omega  full diag
   1   -108.2762217 -0.108276E+03  0.129E-01    0.52       0.0  T
   2   -108.2761971  0.246114E-04  0.774E-02    0.53       1.0  T
   3   -108.2747181  0.147901E-02  0.126E-01    0.50       1.0  T
   4   -108.2762067 -0.148858E-02  0.188E-02    0.53       1.0  T
   5   -108.2762417 -0.350697E-04  0.446E-03    0.52       2.9  T
   6   -108.2762426 -0.839187E-06  0.215E-03    0.52       6.1  T
   7   -108.2762427 -0.144476E-06  0.877E-04    0.52      14.9  T
   8   -108.2762428 -0.463056E-07  0.271E-04    0.52      48.0  T
     SCC iter.                  ...        0 min,  0.031 sec
     gradient                   ...        0 min,  0.038 sec
 * total energy  :  -106.4066083 Eh     change       -0.3567794E-03 Eh
   gradient norm :     0.0086336 Eh/α   predicted    -0.3558126E-03 (  -0.27%)
   displ. norm   :     0.4511791 α      lambda       -0.3962377E-03
   maximum displ.:     0.2718166 α      in ANC's #1, #4, #3, ...

........................................................................
.............................. CYCLE   19 ..............................
........................................................................

 iter      E             dE          RMSdq      gap      omega  full diag
   1   -108.2724745 -0.108272E+03  0.122E-01    0.52       0.0  T
   2   -108.2724742  0.367465E-06  0.711E-02    0.52       1.0  T
   3   -108.2720861  0.388047E-03  0.619E-02    0.51       1.0  T
   4   -108.2724691 -0.382965E-03  0.134E-02    0.53       1.0  T
   5   -108.2724836 -0.145290E-04  0.338E-03    0.52       3.9  T
   6   -108.2724839 -0.286782E-06  0.161E-03    0.52       8.1  T
   7   -108.2724840 -0.137830E-06  0.376E-04    0.52      34.6  T
   8   -108.2724840 -0.497354E-08  0.177E-04    0.52      73.4  T
     SCC iter.                  ...        0 min,  0.031 sec
     gradient                   ...        0 min,  0.036 sec
 * total energy  :  -106.4068439 Eh     change       -0.2356137E-03 Eh
   gradient norm :     0.0092671 Eh/α   predicted    -0.2384530E-03 (   1.21%)
   displ. norm   :     0.3559822 α      lambda       -0.2978941E-03
   maximum displ.:     0.2303479 α      in ANC's #1, #4, #3, ...

........................................................................
.............................. CYCLE   20 ..............................
........................................................................

 iter      E             dE          RMSdq      gap      omega  full diag
   1   -108.2738285 -0.108274E+03  0.905E-02    0.52       0.0  T
   2   -108.2738306 -0.208512E-05  0.526E-02    0.52       1.0  T
   3   -108.2737759  0.547212E-04  0.247E-02    0.51       1.0  T
   4   -108.2738202 -0.443049E-04  0.117E-02    0.52       1.1  T
   5   -108.2738327 -0.125028E-04  0.235E-03    0.52       5.6  T
   6   -108.2738328 -0.108387E-06  0.116E-03    0.52      11.2  T
   7   -108.2738329 -0.616497E-07  0.294E-04    0.52      44.3  T
   8   -108.2738329 -0.375525E-08  0.148E-04    0.52      87.8  T
     SCC iter.                  ...        0 min,  0.032 sec
     gradient                   ...        0 min,  0.036 sec
 * total energy  :  -106.4070597 Eh     change       -0.2157756E-03 Eh
   gradient norm :     0.0079740 Eh/α   predicted    -0.1678282E-03 ( -22.22%)
   displ. norm   :     0.4291336 α      lambda       -0.3740146E-03
   maximum displ.:     0.2749543 α      in ANC's #1, #4, #2, ...
 * RMSD in coord.:     0.8980098 α      energy gain  -0.1652899E+00 Eh

generating ANC from exact Hessian ...
Using Lindh-Hessian (1995)
 Shifting diagonal of input Hessian by    9.5080226386068684E-003
 Lowest  eigenvalues of input Hessian
    0.000000    0.000000    0.000000    0.000000    0.000000    0.000000
    0.010000    0.010163    0.010662    0.010774    0.011234    0.011908
    0.012499    0.013204    0.013760    0.014851    0.015313    0.016021
 Highest eigenvalues
    2.141046    2.194087    2.205439    2.250252    2.300938    2.634856


........................................................................
.............................. CYCLE   21 ..............................
........................................................................

 iter      E             dE          RMSdq      gap      omega  full diag
   1   -108.2770506 -0.108277E+03  0.116E-01    0.52       0.0  T
   2   -108.2770542 -0.356548E-05  0.672E-02    0.52       1.0  T
   3   -108.2769611  0.930973E-04  0.306E-02    0.51       1.0  T
   4   -108.2770423 -0.812434E-04  0.135E-02    0.52       1.0  T
   5   -108.2770580 -0.156162E-04  0.360E-03    0.52       3.6  T
   6   -108.2770583 -0.359346E-06  0.174E-03    0.52       7.5  T
   7   -108.2770585 -0.140320E-06  0.404E-04    0.52      32.2  T
   8   -108.2770585 -0.788063E-08  0.177E-04    0.52      73.7  T
     SCC iter.                  ...        0 min,  0.037 sec
     gradient                   ...        0 min,  0.036 sec
 * total energy  :  -106.4073058 Eh     change       -0.2460904E-03 Eh
   gradient norm :     0.0075263 Eh/α   predicted     0.0000000E+00 (-100.00%)
   displ. norm   :     0.0804662 α      lambda       -0.1817004E-03
   maximum displ.:     0.0424182 α      in ANC's #1, #9, #5, ...

........................................................................
.............................. CYCLE   22 ..............................
........................................................................

 iter      E             dE          RMSdq      gap      omega  full diag
   1   -108.2763033 -0.108276E+03  0.670E-02    0.52       0.0  T
   2   -108.2763061 -0.279270E-05  0.373E-02    0.52       1.0  T
   3   -108.2762964  0.971913E-05  0.115E-02    0.52       1.1  T
   4   -108.2763051 -0.873367E-05  0.546E-03    0.52       2.4  T
   5   -108.2763076 -0.242838E-05  0.235E-03    0.52       5.5  T
   6   -108.2763079 -0.352116E-06  0.881E-04    0.52      14.8  T
   7   -108.2763079 -0.237894E-07  0.267E-04    0.52      48.8  T
     SCC iter.                  ...        0 min,  0.030 sec
     gradient                   ...        0 min,  0.036 sec
 * total energy  :  -106.4074223 Eh     change       -0.1165294E-03 Eh
   gradient norm :     0.0043753 Eh/α   predicted    -0.9336578E-04 ( -19.88%)
   displ. norm   :     0.1570741 α      lambda       -0.2421814E-03
   maximum displ.:     0.0960465 α      in ANC's #1, #10, #5, ...

........................................................................
.............................. CYCLE   23 ..............................
........................................................................

 iter      E             dE          RMSdq      gap      omega  full diag
   1   -108.2759720 -0.108276E+03  0.713E-02    0.53       0.0  T
   2   -108.2759742 -0.215168E-05  0.408E-02    0.53       1.0  T
   3   -108.2759165  0.576891E-04  0.295E-02    0.53       1.0  T
   4   -108.2759636 -0.471353E-04  0.127E-02    0.52       1.0  T
   5   -108.2759789 -0.152970E-04  0.289E-03    0.53       4.5  T
   6   -108.2759793 -0.424877E-06  0.134E-03    0.53       9.7  T
   7   -108.2759794 -0.806540E-07  0.454E-04    0.53      28.6  T
   8   -108.2759794 -0.117256E-07  0.170E-04    0.53      76.5  T
     SCC iter.                  ...        0 min,  0.034 sec
     gradient                   ...        0 min,  0.036 sec
 * total energy  :  -106.4075440 Eh     change       -0.1216925E-03 Eh
   gradient norm :     0.0059906 Eh/α   predicted    -0.1240807E-03 (   1.96%)
   displ. norm   :     0.1186028 α      lambda       -0.1190229E-03
   maximum displ.:     0.0766316 α      in ANC's #1, #5, #6, ...

........................................................................
.............................. CYCLE   24 ..............................
........................................................................

 iter      E             dE          RMSdq      gap      omega  full diag
   1   -108.2764239 -0.108276E+03  0.560E-02    0.53       0.0  T
   2   -108.2764255 -0.151531E-05  0.315E-02    0.53       1.0  T
   3   -108.2763809  0.445267E-04  0.230E-02    0.53       1.0  T
   4   -108.2764233 -0.423453E-04  0.669E-03    0.53       1.9  T
   5   -108.2764274 -0.413505E-05  0.185E-03    0.53       7.0  T
   6   -108.2764275 -0.115981E-06  0.967E-04    0.53      13.5  T
   7   -108.2764276 -0.522304E-07  0.225E-04    0.53      57.9  T
     SCC iter.                  ...        0 min,  0.032 sec
     gradient                   ...        0 min,  0.039 sec
 * total energy  :  -106.4076412 Eh     change       -0.9716092E-04 Eh
   gradient norm :     0.0048713 Eh/α   predicted    -0.6035076E-04 ( -37.89%)
   displ. norm   :     0.2441760 α      lambda       -0.1946556E-03
   maximum displ.:     0.1587487 α      in ANC's #1, #5, #6, ...

........................................................................
.............................. CYCLE   25 ..............................
........................................................................

 iter      E             dE          RMSdq      gap      omega  full diag
   1   -108.2768055 -0.108277E+03  0.922E-02    0.53       0.0  T
   2   -108.2768091 -0.359438E-05  0.523E-02    0.53       1.0  T
   3   -108.2766569  0.152148E-03  0.427E-02    0.54       1.0  T
   4   -108.2768014 -0.144510E-03  0.121E-02    0.53       1.1  T
   5   -108.2768152 -0.137636E-04  0.341E-03    0.53       3.8  T
   6   -108.2768156 -0.426045E-06  0.176E-03    0.53       7.4  T
   7   -108.2768158 -0.177590E-06  0.396E-04    0.53      32.8  T
   8   -108.2768158 -0.655822E-08  0.183E-04    0.53      71.0  T
     SCC iter.                  ...        0 min,  0.031 sec
     gradient                   ...        0 min,  0.040 sec
 * total energy  :  -106.4077869 Eh     change       -0.1456556E-03 Eh
   gradient norm :     0.0031020 Eh/α   predicted    -0.1031385E-03 ( -29.19%)
   displ. norm   :     0.2734245 α      lambda       -0.1440285E-03
   maximum displ.:     0.1778237 α      in ANC's #1, #5, #6, ...

........................................................................
.............................. CYCLE   26 ..............................
........................................................................

 iter      E             dE          RMSdq      gap      omega  full diag
   1   -108.2768860 -0.108277E+03  0.887E-02    0.53       0.0  T
   2   -108.2768901 -0.408129E-05  0.506E-02    0.53       1.0  T
   3   -108.2768007  0.894228E-04  0.331E-02    0.54       1.0  T
   4   -108.2768813 -0.806264E-04  0.118E-02    0.53       1.1  T
   5   -108.2768943 -0.129549E-04  0.320E-03    0.53       4.1  T
   6   -108.2768946 -0.361490E-06  0.161E-03    0.53       8.1  T
   7   -108.2768948 -0.148432E-06  0.370E-04    0.53      35.2  T
   8   -108.2768948 -0.563948E-08  0.177E-04    0.53      73.6  T
     SCC iter.                  ...        0 min,  0.031 sec
     gradient                   ...        0 min,  0.035 sec
 * total energy  :  -106.4079046 Eh     change       -0.1177883E-03 Eh
   gradient norm :     0.0040897 Eh/α   predicted    -0.7739989E-04 ( -34.29%)
   displ. norm   :     0.3279147 α      lambda       -0.1682010E-03
   maximum displ.:     0.2073358 α      in ANC's #1, #5, #6, ...

........................................................................
.............................. CYCLE   27 ..............................
........................................................................

 iter      E             dE          RMSdq      gap      omega  full diag
   1   -108.2771589 -0.108277E+03  0.942E-02    0.53       0.0  T
   2   -108.2771643 -0.539241E-05  0.539E-02    0.53       1.0  T
   3   -108.2771473  0.169999E-04  0.161E-02    0.53       1.0  T
   4   -108.2771588 -0.115350E-04  0.960E-03    0.53       1.4  T
   5   -108.2771662 -0.740369E-05  0.379E-03    0.53       3.4  T
   6   -108.2771671 -0.861278E-06  0.147E-03    0.53       8.8  T
   7   -108.2771672 -0.123289E-06  0.347E-04    0.53      37.5  T
   8   -108.2771672 -0.473126E-08  0.170E-04    0.53      76.5  T
     SCC iter.                  ...        0 min,  0.031 sec
     gradient                   ...        0 min,  0.036 sec
 * total energy  :  -106.4080523 Eh     change       -0.1476831E-03 Eh
   gradient norm :     0.0051727 Eh/α   predicted    -0.9314407E-04 ( -36.93%)
   displ. norm   :     0.4718797 α      lambda       -0.2563720E-03
   maximum displ.:     0.2902150 α      in ANC's #1, #5, #6, ...

........................................................................
.............................. CYCLE   28 ..............................
........................................................................

 iter      E             dE          RMSdq      gap      omega  full diag
   1   -108.2768359 -0.108277E+03  0.125E-01    0.53       0.0  T
   2   -108.2768439 -0.801763E-05  0.717E-02    0.53       1.0  T
   3   -108.2768024  0.415639E-04  0.223E-02    0.52       1.0  T
   4   -108.2768306 -0.282264E-04  0.140E-02    0.53       1.0  T
   5   -108.2768479 -0.172768E-04  0.393E-03    0.53       3.3  T
   6   -108.2768484 -0.567495E-06  0.163E-03    0.53       8.0  T
   7   -108.2768486 -0.140793E-06  0.392E-04    0.53      33.2  T
   8   -108.2768486 -0.479922E-08  0.180E-04    0.53      72.4  T
     SCC iter.                  ...        0 min,  0.042 sec
     gradient                   ...        0 min,  0.037 sec
 * total energy  :  -106.4082745 Eh     change       -0.2221798E-03 Eh
   gradient norm :     0.0063836 Eh/α   predicted    -0.1567346E-03 ( -29.46%)
   displ. norm   :     0.5768336 α      lambda       -0.3249437E-03
   maximum displ.:     0.3514521 α      in ANC's #1, #7, #5, ...

........................................................................
.............................. CYCLE   29 ..............................
........................................................................

 iter      E             dE          RMSdq      gap      omega  full diag
   1   -108.2760730 -0.108276E+03  0.143E-01    0.52       0.0  T
   2   -108.2760787 -0.572670E-05  0.828E-02    0.52       1.0  T
   3   -108.2757755  0.303268E-03  0.565E-02    0.51       1.0  T
   4   -108.2760754 -0.299938E-03  0.122E-02    0.52       1.1  T
   5   -108.2760880 -0.125964E-04  0.378E-03    0.52       3.4  T
   6   -108.2760883 -0.304514E-06  0.176E-03    0.52       7.4  T
   7   -108.2760885 -0.166022E-06  0.499E-04    0.52      26.1  T
   8   -108.2760885 -0.106851E-07  0.209E-04    0.52      62.3  T
     SCC iter.                  ...        0 min,  0.031 sec
     gradient                   ...        0 min,  0.041 sec
 * total energy  :  -106.4085445 Eh     change       -0.2699673E-03 Eh
   gradient norm :     0.0077916 Eh/α   predicted    -0.2165352E-03 ( -19.79%)
   displ. norm   :     0.5729841 α      lambda       -0.3587380E-03
   maximum displ.:     0.3489444 α      in ANC's #1, #7, #5, ...

........................................................................
.............................. CYCLE   30 ..............................
........................................................................

 iter      E             dE          RMSdq      gap      omega  full diag
   1   -108.2761679 -0.108276E+03  0.138E-01    0.51       0.0  T
   2   -108.2761658  0.214250E-05  0.803E-02    0.52       1.0  T
   3   -108.2754398  0.725966E-03  0.866E-02    0.49       1.0  T
   4   -108.2761727 -0.732892E-03  0.106E-02    0.52       1.2  T
   5   -108.2761821 -0.942221E-05  0.347E-03    0.51       3.8  T
   6   -108.2761824 -0.270911E-06  0.167E-03    0.51       7.8  T
   7   -108.2761825 -0.120611E-06  0.616E-04    0.51      21.1  T
   8   -108.2761825 -0.211111E-07  0.204E-04    0.51      63.8  T
     SCC iter.                  ...        0 min,  0.031 sec
     gradient                   ...        0 min,  0.040 sec
 * total energy  :  -106.4088367 Eh     change       -0.2922628E-03 Eh
   gradient norm :     0.0073199 Eh/α   predicted    -0.2382598E-03 ( -18.48%)
   displ. norm   :     0.5706776 α      lambda       -0.3595353E-03
   maximum displ.:     0.3485390 α      in ANC's #1, #7, #2, ...

........................................................................
.............................. CYCLE   31 ..............................
........................................................................

 iter      E             dE          RMSdq      gap      omega  full diag
   1   -108.2751231 -0.108275E+03  0.141E-01    0.51       0.0  T
   2   -108.2751246 -0.152015E-05  0.821E-02    0.51       1.0  T
   3   -108.2745365  0.588136E-03  0.777E-02    0.49       1.0  T
   4   -108.2751210 -0.584529E-03  0.145E-02    0.51       1.0  T
   5   -108.2751394 -0.183953E-04  0.377E-03    0.51       3.5  T
   6   -108.2751396 -0.212612E-06  0.208E-03    0.51       6.3  T
   7   -108.2751398 -0.180353E-06  0.631E-04    0.51      20.6  T
   8   -108.2751398 -0.196268E-07  0.243E-04    0.51      53.7  T
     SCC iter.                  ...        0 min,  0.031 sec
     gradient                   ...        0 min,  0.043 sec
 * total energy  :  -106.4091351 Eh     change       -0.2983247E-03 Eh
   gradient norm :     0.0061985 Eh/α   predicted    -0.2383351E-03 ( -20.11%)
   displ. norm   :     0.5259817 α      lambda       -0.4083274E-03
   maximum displ.:     0.3034955 α      in ANC's #1, #7, #2, ...

........................................................................
.............................. CYCLE   32 ..............................
........................................................................

 iter      E             dE          RMSdq      gap      omega  full diag
   1   -108.2803310 -0.108280E+03  0.143E-01    0.51       0.0  T
   2   -108.2803315 -0.435572E-06  0.835E-02    0.51       1.0  T
   3   -108.2796197  0.711798E-03  0.850E-02    0.49       1.0  T
   4   -108.2803232 -0.703494E-03  0.177E-02    0.51       1.0  T
   5   -108.2803490 -0.258423E-04  0.425E-03    0.51       3.1  T
   6   -108.2803495 -0.473377E-06  0.237E-03    0.51       5.5  T
   7   -108.2803497 -0.213768E-06  0.843E-04    0.51      15.4  T
   8   -108.2803497 -0.352799E-07  0.240E-04    0.51      54.3  T
     SCC iter.                  ...        0 min,  0.030 sec
     gradient                   ...        0 min,  0.038 sec
 * total energy  :  -106.4094012 Eh     change       -0.2661545E-03 Eh
   gradient norm :     0.0080367 Eh/α   predicted    -0.2606499E-03 (  -2.07%)
   displ. norm   :     0.7694073 α      lambda       -0.4933301E-03
   maximum displ.:     0.4636185 α      in ANC's #1, #7, #2, ...

........................................................................
.............................. CYCLE   33 ..............................
........................................................................

 iter      E             dE          RMSdq      gap      omega  full diag
   1   -108.2693667 -0.108269E+03  0.211E-01    0.50       0.0  T
   2   -108.2693928 -0.260274E-04  0.121E-01    0.51       1.0  T
   3   -108.2692920  0.100771E-03  0.386E-02    0.50       1.0  T
   4   -108.2693634 -0.713984E-04  0.218E-02    0.51       1.0  T
   5   -108.2694017 -0.383278E-04  0.971E-03    0.50       1.3  T
   6   -108.2694074 -0.566891E-05  0.427E-03    0.51       3.0  T
   7   -108.2694083 -0.887429E-06  0.940E-04    0.51      13.9  T
   8   -108.2694083 -0.456708E-07  0.381E-04    0.51      34.2  T
     SCC iter.                  ...        0 min,  0.031 sec
     gradient                   ...        0 min,  0.035 sec
 * total energy  :  -106.4095917 Eh     change       -0.1905239E-03 Eh
   gradient norm :     0.0141893 Eh/α   predicted    -0.3926887E-03 ( 106.11%)
   displ. norm   :     0.0856830 α      lambda       -0.3133763E-03
   maximum displ.:     0.0367179 α      in ANC's #6, #4, #2, ...

........................................................................
.............................. CYCLE   34 ..............................
........................................................................

 iter      E             dE          RMSdq      gap      omega  full diag
   1   -108.2749814 -0.108275E+03  0.411E-02    0.51       0.0  T
   2   -108.2749833 -0.191743E-05  0.237E-02    0.51       1.0  T
   3   -108.2749557  0.276407E-04  0.196E-02    0.51       1.0  T
   4   -108.2749702 -0.145004E-04  0.123E-02    0.51       1.1  T
   5   -108.2749850 -0.147984E-04  0.213E-03    0.51       6.1  T
   6   -108.2749853 -0.301995E-06  0.941E-04    0.51      13.8  T
   7   -108.2749853 -0.330739E-07  0.370E-04    0.51      35.2  T
     SCC iter.                  ...        0 min,  0.029 sec
     gradient                   ...        0 min,  0.036 sec
 * total energy  :  -106.4098071 Eh     change       -0.2153404E-03 Eh
   gradient norm :     0.0084799 Eh/α   predicted    -0.1578392E-03 ( -26.70%)
   displ. norm   :     0.4371168 α      lambda       -0.3300090E-03
   maximum displ.:     0.2311191 α      in ANC's #1, #7, #2, ...

........................................................................
.............................. CYCLE   35 ..............................
........................................................................

 iter      E             dE          RMSdq      gap      omega  full diag
   1   -108.2795005 -0.108280E+03  0.132E-01    0.51       0.0  T
   2   -108.2795101 -0.956764E-05  0.758E-02    0.51       1.0  T
   3   -108.2794781  0.319857E-04  0.212E-02    0.51       1.0  T
   4   -108.2795010 -0.228680E-04  0.125E-02    0.52       1.0  T
   5   -108.2795127 -0.117179E-04  0.613E-03    0.51       2.1  T
   6   -108.2795150 -0.233390E-05  0.237E-03    0.51       5.5  T
   7   -108.2795153 -0.314750E-06  0.578E-04    0.51      22.5  T
   8   -108.2795154 -0.178973E-07  0.241E-04    0.51      54.1  T
     SCC iter.                  ...        0 min,  0.034 sec
     gradient                   ...        0 min,  0.037 sec
 * total energy  :  -106.4100434 Eh     change       -0.2362793E-03 Eh
   gradient norm :     0.0045910 Eh/α   predicted    -0.1965333E-03 ( -16.82%)
   displ. norm   :     0.5686465 α      lambda       -0.2990962E-03
   maximum displ.:     0.3016101 α      in ANC's #1, #2, #7, ...

........................................................................
.............................. CYCLE   36 ..............................
........................................................................

 iter      E             dE          RMSdq      gap      omega  full diag
   1   -108.2770273 -0.108277E+03  0.184E-01    0.51       0.0  T
   2   -108.2770481 -0.207803E-04  0.105E-01    0.52       1.0  T
   3   -108.2770115  0.365579E-04  0.265E-02    0.51       1.0  T
   4   -108.2770555 -0.440046E-04  0.792E-03    0.52       1.6  T
   5   -108.2770571 -0.151576E-05  0.474E-03    0.51       2.7  T
   6   -108.2770569  0.177782E-06  0.385E-03    0.52       3.4  T
   7   -108.2770582 -0.131834E-05  0.116E-03    0.52      11.3  T
   8   -108.2770583 -0.106045E-06  0.292E-04    0.52      44.5  T
   9   -108.2770583 -0.172336E-08  0.141E-04    0.52      92.2  T
     SCC iter.                  ...        0 min,  0.034 sec
     gradient                   ...        0 min,  0.046 sec
 * total energy  :  -106.4102389 Eh     change       -0.1955381E-03 Eh
   gradient norm :     0.0089409 Eh/α   predicted    -0.1979060E-03 (   1.21%)
   displ. norm   :     0.3780664 α      lambda       -0.1671955E-03
   maximum displ.:     0.1976206 α      in ANC's #1, #2, #7, ...

........................................................................
.............................. CYCLE   37 ..............................
........................................................................

 iter      E             dE          RMSdq      gap      omega  full diag
   1   -108.2761886 -0.108276E+03  0.112E-01    0.51       0.0  T
   2   -108.2761931 -0.457557E-05  0.649E-02    0.51       1.0  T
   3   -108.2760472  0.145923E-03  0.405E-02    0.50       1.0  T
   4   -108.2761794 -0.132139E-03  0.147E-02    0.52       1.0  T
   5   -108.2761987 -0.193604E-04  0.322E-03    0.51       4.0  T
   6   -108.2761988 -0.973488E-07  0.192E-03    0.51       6.8  T
   7   -108.2761991 -0.260911E-06  0.460E-04    0.51      28.3  T
   8   -108.2761991 -0.108721E-07  0.187E-04    0.51      69.4  T
     SCC iter.                  ...        0 min,  0.031 sec
     gradient                   ...        0 min,  0.050 sec
 * total energy  :  -106.4103603 Eh     change       -0.1214116E-03 Eh
   gradient norm :     0.0069254 Eh/α   predicted    -0.9554782E-04 ( -21.30%)
   displ. norm   :     0.2828129 α      lambda       -0.2217544E-03
   maximum displ.:     0.1721326 α      in ANC's #2, #4, #1, ...

........................................................................
.............................. CYCLE   38 ..............................
........................................................................

 iter      E             dE          RMSdq      gap      omega  full diag
   1   -108.2825273 -0.108283E+03  0.107E-01    0.51       0.0  T
   2   -108.2825331 -0.583119E-05  0.615E-02    0.51       1.0  T
   3   -108.2824421  0.910549E-04  0.330E-02    0.50       1.0  T
   4   -108.2825114 -0.693442E-04  0.170E-02    0.51       1.0  T
   5   -108.2825377 -0.263379E-04  0.413E-03    0.51       3.1  T
   6   -108.2825387 -0.992174E-06  0.208E-03    0.51       6.3  T
   7   -108.2825389 -0.202707E-06  0.709E-04    0.51      18.4  T
   8   -108.2825390 -0.268667E-07  0.170E-04    0.51      76.7  T
     SCC iter.                  ...        0 min,  0.031 sec
     gradient                   ...        0 min,  0.043 sec
 * total energy  :  -106.4104581 Eh     change       -0.9781642E-04 Eh
   gradient norm :     0.0057473 Eh/α   predicted    -0.1197503E-03 (  22.42%)
   displ. norm   :     0.4129477 α      lambda       -0.1751147E-03
   maximum displ.:     0.2257839 α      in ANC's #2, #1, #7, ...

........................................................................
.............................. CYCLE   39 ..............................
........................................................................

 iter      E             dE          RMSdq      gap      omega  full diag
   1   -108.2775537 -0.108278E+03  0.128E-01    0.50       0.0  T
   2   -108.2775524  0.129602E-05  0.741E-02    0.51       1.0  T
   3   -108.2769957  0.556672E-03  0.771E-02    0.49       1.0  T
   4   -108.2775556 -0.559874E-03  0.112E-02    0.51       1.2  T
   5   -108.2775661 -0.105444E-04  0.331E-03    0.50       3.9  T
   6   -108.2775662 -0.991497E-07  0.191E-03    0.50       6.8  T
   7   -108.2775665 -0.228176E-06  0.590E-04    0.50      22.1  T
   8   -108.2775665 -0.221605E-07  0.205E-04    0.50      63.5  T
     SCC iter.                  ...        0 min,  0.030 sec
     gradient                   ...        0 min,  0.038 sec
 * total energy  :  -106.4105579 Eh     change       -0.9978541E-04 Eh
   gradient norm :     0.0060648 Eh/α   predicted    -0.1024886E-03 (   2.71%)
   displ. norm   :     0.1496374 α      lambda       -0.1008458E-03
   maximum displ.:     0.0956112 α      in ANC's #2, #1, #7, ...

........................................................................
.............................. CYCLE   40 ..............................
........................................................................

 iter      E             dE          RMSdq      gap      omega  full diag
   1   -108.2775870 -0.108278E+03  0.496E-02    0.50       0.0  T
   2   -108.2775882 -0.123777E-05  0.286E-02    0.50       1.0  T
   3   -108.2775640  0.242029E-04  0.166E-02    0.50       1.0  T
   4   -108.2775828 -0.187679E-04  0.839E-03    0.50       1.6  T
   5   -108.2775895 -0.674036E-05  0.149E-03    0.50       8.7  T
   6   -108.2775896 -0.811051E-07  0.760E-04    0.50      17.1  T
   7   -108.2775896 -0.180971E-07  0.244E-04    0.50      53.3  T
     SCC iter.                  ...        0 min,  0.027 sec
     gradient                   ...        0 min,  0.035 sec
 * total energy  :  -106.4106320 Eh     change       -0.7407850E-04 Eh
   gradient norm :     0.0055197 Eh/α   predicted    -0.5155590E-04 ( -30.40%)
   displ. norm   :     0.2583886 α      lambda       -0.1882869E-03
   maximum displ.:     0.1822982 α      in ANC's #2, #6, #7, ...

........................................................................
.............................. CYCLE   41 ..............................
........................................................................

 iter      E             dE          RMSdq      gap      omega  full diag
   1   -108.2800472 -0.108280E+03  0.994E-02    0.50       0.0  T
   2   -108.2800528 -0.561210E-05  0.567E-02    0.50       1.0  T
   3   -108.2799561  0.966504E-04  0.327E-02    0.49       1.0  T
   4   -108.2800309 -0.747363E-04  0.172E-02    0.51       1.0  T
   5   -108.2800585 -0.275931E-04  0.312E-03    0.50       4.2  T
   6   -108.2800587 -0.233835E-06  0.174E-03    0.50       7.5  T
   7   -108.2800588 -0.115088E-06  0.541E-04    0.50      24.0  T
   8   -108.2800588 -0.162743E-07  0.205E-04    0.50      63.6  T
     SCC iter.                  ...        0 min,  0.035 sec
     gradient                   ...        0 min,  0.036 sec
 * total energy  :  -106.4107389 Eh     change       -0.1069510E-03 Eh
   gradient norm :     0.0056942 Eh/α   predicted    -0.1004304E-03 (  -6.10%)
   displ. norm   :     0.2625550 α      lambda       -0.9421280E-04
   maximum displ.:     0.1867796 α      in ANC's #2, #7, #1, ...

........................................................................
.............................. CYCLE   42 ..............................
........................................................................

 iter      E             dE          RMSdq      gap      omega  full diag
   1   -108.2800001 -0.108280E+03  0.820E-02    0.50       0.0  T
   2   -108.2800015 -0.138824E-05  0.474E-02    0.50       1.0  T
   3   -108.2799129  0.886413E-04  0.300E-02    0.49       1.0  T
   4   -108.2799996 -0.866781E-04  0.781E-03    0.50       1.7  T
   5   -108.2800042 -0.461433E-05  0.213E-03    0.50       6.1  T
   6   -108.2800042 -0.430985E-07  0.126E-03    0.50      10.3  T
   7   -108.2800043 -0.867040E-07  0.310E-04    0.50      42.0  T
   8   -108.2800043 -0.444560E-08  0.120E-04    0.50     108.1  T
     SCC iter.                  ...        0 min,  0.031 sec
     gradient                   ...        0 min,  0.037 sec
 * total energy  :  -106.4107997 Eh     change       -0.6077365E-04 Eh
   gradient norm :     0.0051677 Eh/α   predicted    -0.5035819E-04 ( -17.14%)
   displ. norm   :     0.2787469 α      lambda       -0.1199801E-03
   maximum displ.:     0.2113576 α      in ANC's #2, #7, #4, ...
 * RMSD in coord.:     0.9110658 α      energy gain  -0.3739988E-02 Eh

generating ANC from exact Hessian ...
Using Lindh-Hessian (1995)
 Shifting diagonal of input Hessian by    9.4864183353672096E-003
 Lowest  eigenvalues of input Hessian
    0.000000    0.000000    0.000000    0.000000    0.000000    0.000000
    0.010000    0.010066    0.010562    0.010821    0.011319    0.011806
    0.012616    0.013048    0.013886    0.014537    0.015586    0.016559
 Highest eigenvalues
    2.144573    2.211150    2.213435    2.241637    2.297273    2.629687


........................................................................
.............................. CYCLE   43 ..............................
........................................................................

 iter      E             dE          RMSdq      gap      omega  full diag
   1   -108.2810583 -0.108281E+03  0.908E-02    0.51       0.0  T
   2   -108.2810603 -0.197061E-05  0.525E-02    0.51       1.0  T
   3   -108.2809521  0.108234E-03  0.332E-02    0.50       1.0  T
   4   -108.2810547 -0.102598E-03  0.106E-02    0.51       1.2  T
   5   -108.2810639 -0.923030E-05  0.244E-03    0.51       5.3  T
   6   -108.2810640 -0.102088E-06  0.136E-03    0.51       9.6  T
   7   -108.2810641 -0.745386E-07  0.488E-04    0.51      26.7  T
   8   -108.2810641 -0.148550E-07  0.149E-04    0.51      87.6  T
     SCC iter.                  ...        0 min,  0.031 sec
     gradient                   ...        0 min,  0.046 sec
 * total energy  :  -106.4108537 Eh     change       -0.5400141E-04 Eh
   gradient norm :     0.0056497 Eh/α   predicted     0.0000000E+00 (-100.00%)
   displ. norm   :     0.0436851 α      lambda       -0.5877929E-04
   maximum displ.:     0.0182930 α      in ANC's #1, #16, #8, ...

........................................................................
.............................. CYCLE   44 ..............................
........................................................................

 iter      E             dE          RMSdq      gap      omega  full diag
   1   -108.2801414 -0.108280E+03  0.312E-02    0.51       0.0  T
   2   -108.2801412  0.240634E-06  0.180E-02    0.51       1.0  T
   3   -108.2800886  0.525737E-04  0.235E-02    0.50       1.0  T
   4   -108.2801414 -0.527372E-04  0.446E-03    0.51       2.9  T
   5   -108.2801431 -0.171607E-05  0.731E-04    0.51      17.8  T
   6   -108.2801431 -0.121358E-07  0.411E-04    0.51      31.7  T
   7   -108.2801431 -0.494128E-08  0.166E-04    0.51      78.5  T
     SCC iter.                  ...        0 min,  0.027 sec
     gradient                   ...        0 min,  0.037 sec
 * total energy  :  -106.4108955 Eh     change       -0.4177979E-04 Eh
   gradient norm :     0.0022705 Eh/α   predicted    -0.3179432E-04 ( -23.90%)
   displ. norm   :     0.0675694 α      lambda       -0.4929486E-04
   maximum displ.:     0.0334471 α      in ANC's #1, #4, #8, ...

   *** GEOMETRY OPTIMIZATION CONVERGED AFTER 44 ITERATIONS ***

------------------------------------------------------------------------
 total energy gain   :        -0.1691257 Eh     -106.1280 kcal/mol
 total RMSD          :         1.4449632 a0        0.7646 Å
 total power (kW/mol):       -10.0918065 (step) -117.5230 (real)
------------------------------------------------------------------------

 ANCopt (total)                0 d,  0 h,  0 min,  3.778 sec
 optimizer setup                ...        0 min,  0.000 sec (  0.002%)
 model hessian                  ...        0 min,  0.026 sec (  0.682%)
 ANC generation                 ...        0 min,  0.006 sec (  0.151%)
 coordinate transformation      ...        0 min,  0.001 sec (  0.034%)
 single point calculation       ...        0 min,  3.722 sec ( 98.504%)
 optimization log               ...        0 min,  0.010 sec (  0.269%)
 hessian update                 ...        0 min,  0.001 sec (  0.030%)
 rational function              ...        0 min,  0.007 sec (  0.174%)

================
 final structure:
================
 xtb: 6.7.1 (edcfbbe)
          08252607103D

 59 68  0     0  0            999 V2000
   -3.9626    3.8892   -3.0468 H   0  0  0  0  0  0  0  0  0  0  0  0
   -1.3541   -3.7252    2.0870 C   0  0  0  0  0  0  0  0  0  0  0  0
    4.5891   -3.6496   -2.4516 H   0  0  0  0  0  0  0  0  0  0  0  0
   -2.1397    5.0618    2.4223 H   0  0  0  0  0  0  0  0  0  0  0  0
    1.5562    2.0336    2.9257 C   0  0  0  0  0  0  0  0  0  0  0  0
    1.4967    3.9445    3.8998 H   0  0  0  0  0  0  0  0  0  0  0  0
    0.9505   -3.4375    0.5532 C   0  0  0  0  0  0  0  0  0  0  0  0
    0.7327   -6.3385   -1.3438 N   0  0  0  0  0  0  0  0  0  0  0  0
   -0.5132   -0.8990   -4.7400 N   0  0  0  0  0  0  0  0  0  0  0  0
    3.4698   -4.5707   -0.3867 H   0  0  0  0  0  0  0  0  0  0  0  0
    0.4538   -5.5368   -0.5730 C   0  0  0  0  0  0  0  0  0  0  0  0
   -0.0910    3.7101    2.6134 N   0  0  0  0  0  0  0  0  0  0  0  0
    1.9976   -1.7592   -2.3761 C   0  0  0  0  0  0  0  0  0  0  0  0
   -0.7678   -1.8825    3.0126 H   0  0  0  0  0  0  0  0  0  0  0  0
    4.3649   -0.8868    3.5645 H   0  0  0  0  0  0  0  0  0  0  0  0
    0.1307   -4.5613    0.3983 C   0  0  0  0  0  0  0  0  0  0  0  0
    2.6943    0.2613    2.9667 C   0  0  0  0  0  0  0  0  0  0  0  0
   -2.2420    0.0977   -4.4359 H   0  0  0  0  0  0  0  0  0  0  0  0
   -1.0123   -4.7134    1.1830 C   0  0  0  0  0  0  0  0  0  0  0  0
    2.7276    1.4910    3.4122 N   0  0  0  0  0  0  0  0  0  0  0  0
   -3.0514    3.7594   -1.1000 C   0  0  0  0  0  0  0  0  0  0  0  0
   -1.5842    1.6024   -2.2028 C   0  0  0  0  0  0  0  0  0  0  0  0
    1.5158   -0.0943    2.1886 C   0  0  0  0  0  0  0  0  0  0  0  0
    3.6550   -3.2426   -2.0846 C   0  0  0  0  0  0  0  0  0  0  0  0
   -3.9585    6.1540    1.1310 H   0  0  0  0  0  0  0  0  0  0  0  0
   -1.4437    1.8990   -0.8274 C   0  0  0  0  0  0  0  0  0  0  0  0
   -3.2508    3.3538   -2.4360 C   0  0  0  0  0  0  0  0  0  0  0  0
   -4.4792    5.3608   -1.1481 H   0  0  0  0  0  0  0  0  0  0  0  0
   -2.4289    4.6883    1.4528 C   0  0  0  0  0  0  0  0  0  0  0  0
    1.0787   -0.8875   -3.1285 C   0  0  0  0  0  0  0  0  0  0  0  0
    1.0054    0.6899   -1.6655 H   0  0  0  0  0  0  0  0  0  0  0  0
   -0.7833    0.5915   -2.8837 C   0  0  0  0  0  0  0  0  0  0  0  0
    3.0588   -3.7358   -0.9301 C   0  0  0  0  0  0  0  0  0  0  0  0
    1.0300    3.2671    3.1986 C   0  0  0  0  0  0  0  0  0  0  0  0
    0.6111   -1.3440   -4.2797 N   0  0  0  0  0  0  0  0  0  0  0  0
   -3.4329    5.3072    0.7158 C   0  0  0  0  0  0  0  0  0  0  0  0
    3.1158   -2.2904   -2.8310 N   0  0  0  0  0  0  0  0  0  0  0  0
   -0.6725    1.1306    0.0873 C   0  0  0  0  0  0  0  0  0  0  0  0
   -1.7652    3.5745    0.9549 C   0  0  0  0  0  0  0  0  0  0  0  0
    0.4824    0.1954   -2.4683 C   0  0  0  0  0  0  0  0  0  0  0  0
   -0.5232   -2.6341    2.2766 C   0  0  0  0  0  0  0  0  0  0  0  0
   -2.0995    3.0624   -0.3187 C   0  0  0  0  0  0  0  0  0  0  0  0
    1.4138   -2.0685   -1.2245 N   0  0  0  0  0  0  0  0  0  0  0  0
    3.2913   -2.8537    2.4324 H   0  0  0  0  0  0  0  0  0  0  0  0
    0.8131    1.1017    2.0757 C   0  0  0  0  0  0  0  0  0  0  0  0
    3.5029   -0.8242    3.0518 N   0  0  0  0  0  0  0  0  0  0  0  0
    1.8977   -3.0872   -0.5246 C   0  0  0  0  0  0  0  0  0  0  0  0
    1.6367   -1.4887    1.9247 C   0  0  0  0  0  0  0  0  0  0  0  0
   -2.5898    2.1326   -4.0261 H   0  0  0  0  0  0  0  0  0  0  0  0
   -0.2297    1.6606    1.2851 C   0  0  0  0  0  0  0  0  0  0  0  0
    2.8562   -1.8714    2.4368 C   0  0  0  0  0  0  0  0  0  0  0  0
   -2.4982    2.3475   -2.9727 C   0  0  0  0  0  0  0  0  0  0  0  0
   -3.7305    4.8622   -0.5498 C   0  0  0  0  0  0  0  0  0  0  0  0
    0.6461   -2.4924    1.5339 C   0  0  0  0  0  0  0  0  0  0  0  0
   -1.2480   -0.0642   -4.0459 C   0  0  0  0  0  0  0  0  0  0  0  0
   -0.6607    2.9867    1.6768 C   0  0  0  0  0  0  0  0  0  0  0  0
   -0.3678    0.1277   -0.1768 H   0  0  0  0  0  0  0  0  0  0  0  0
   -1.6319   -5.5881    1.0526 H   0  0  0  0  0  0  0  0  0  0  0  0
   -2.2617   -3.8166    2.6642 H   0  0  0  0  0  0  0  0  0  0  0  0
  1 27  1  0  0  0  0
  2 19  4  0  0  0  0
  2 41  4  0  0  0  0
  2 59  1  0  0  0  0
  3 24  1  0  0  0  0
  4 29  1  0  0  0  0
  5 20  4  0  0  0  0
  5 34  4  0  0  0  0
  5 45  4  0  0  0  0
  6 34  1  0  0  0  0
  7 16  4  0  0  0  0
  7 47  4  0  0  0  0
  7 54  4  0  0  0  0
  8 11  3  0  0  0  0
  9 35  4  0  0  0  0
  9 55  4  0  0  0  0
 10 33  1  0  0  0  0
 11 16  1  0  0  0  0
 12 34  4  0  0  0  0
 12 56  4  0  0  0  0
 13 30  4  0  0  0  0
 13 37  4  0  0  0  0
 13 43  4  0  0  0  0
 14 41  1  0  0  0  0
 15 46  1  0  0  0  0
 16 19  4  0  0  0  0
 17 20  4  0  0  0  0
 17 23  4  0  0  0  0
 17 46  4  0  0  0  0
 18 55  1  0  0  0  0
 19 58  1  0  0  0  0
 21 27  4  0  0  0  0
 21 42  4  0  0  0  0
 21 53  4  0  0  0  0
 22 26  4  0  0  0  0
 22 32  4  0  0  0  0
 22 52  4  0  0  0  0
 23 45  4  0  0  0  0
 23 48  4  0  0  0  0
 24 33  4  0  0  0  0
 24 37  4  0  0  0  0
 25 36  1  0  0  0  0
 26 38  4  0  0  0  0
 26 42  4  0  0  0  0
 27 52  4  0  0  0  0
 28 53  1  0  0  0  0
 29 36  4  0  0  0  0
 29 39  4  0  0  0  0
 30 35  4  0  0  0  0
 30 40  4  0  0  0  0
 31 40  1  0  0  0  0
 32 40  4  0  0  0  0
 32 55  4  0  0  0  0
 33 47  4  0  0  0  0
 36 53  4  0  0  0  0
 38 50  4  0  0  0  0
 38 57  1  0  0  0  0
 39 42  4  0  0  0  0
 39 56  4  0  0  0  0
 41 54  4  0  0  0  0
 43 47  4  0  0  0  0
 44 51  1  0  0  0  0
 45 50  4  0  0  0  0
 46 51  4  0  0  0  0
 48 51  4  0  0  0  0
 48 54  4  0  0  0  0
 49 52  1  0  0  0  0
 50 56  4  0  0  0  0
M  END
$$$$

 Bond Distances (Angstroems)
 ---------------------------
H1-C27=1.0800        C2-C19=1.3823        C2-C41=1.3845        C2-H59=1.0794        H3-C24=1.0830        H4-C29=1.0785        
C5-N20=1.3796        C5-C34=1.3685        C5-C45=1.4640        H6-C34=1.0809        C7-C16=1.3997        C7-C47=1.4770        
C7-C54=1.3955        N8-C11=1.1466        N9-N35=1.2938        N9-C55=1.3110        H10-C33=1.0777       C11-N8=1.1466        
C11-C16=1.4140       N12-C34=1.3399       N12-C56=1.3135       C13-C30=1.4732       C13-N37=1.3189       C13-N43=1.3277       
H14-C41=1.0800       H15-N46=1.0048       C16-C7=1.3997        C16-C11=1.4140       C16-C19=1.3947       C17-N20=1.3083       
C17-C23=1.4563       C17-N46=1.3563       H18-C55=1.0799       C19-C2=1.3823        C19-C16=1.3947       C19-H58=1.0798       
N20-C5=1.3796        N20-C17=1.3083       C21-C27=1.4104       C21-C42=1.4150       C21-C53=1.4071       C22-C26=1.4139       
C22-C32=1.4584       C22-C52=1.4083       C23-C17=1.4563       C23-C45=1.3918       C23-C48=1.4243       C24-H3=1.0830        
C24-C33=1.3897       C24-N37=1.3246       H25-C36=1.0796       C26-C22=1.4139       C26-C38=1.4219       C26-C42=1.4291       
C27-H1=1.0800        C27-C21=1.4104       C27-C52=1.3664       H28-C53=1.0803       C29-H4=1.0785        C29-C36=1.3907       
C29-C39=1.3889       C30-C13=1.4732       C30-N35=1.3237       C30-C40=1.4015       H31-C40=1.0782       C32-C22=1.4584       
C32-C40=1.3898       C32-C55=1.4130       C33-H10=1.0777       C33-C24=1.3897       C33-C47=1.3905       C34-C5=1.3685        
C34-H6=1.0809        C34-N12=1.3399       N35-N9=1.2938        N35-C30=1.3237       C36-H25=1.0796       C36-C29=1.3907       
C36-C53=1.3741       N37-C13=1.3189       N37-C24=1.3246       C38-C26=1.4219       C38-C50=1.3827       C38-H57=1.0810       
C39-C29=1.3889       C39-C42=1.4128       C39-C56=1.4445       C40-C30=1.4015       C40-H31=1.0782       C40-C32=1.3898       
C41-C2=1.3845        C41-H14=1.0800       C41-C54=1.3925       C42-C21=1.4150       C42-C26=1.4291       C42-C39=1.4128       
N43-C13=1.3277       N43-C47=1.3273       H44-C51=1.0744       C45-C5=1.4640        C45-C23=1.3918       C45-C50=1.4229       
N46-H15=1.0048       N46-C17=1.3563       N46-C51=1.3759       C47-C7=1.4770        C47-C33=1.3905       C47-N43=1.3273       
C48-C23=1.4243       C48-C51=1.3769       C48-C54=1.4633       H49-C52=1.0790       C50-C38=1.3827       C50-C45=1.4229       
C50-C56=1.4483       C51-H44=1.0744       C51-N46=1.3759       C51-C48=1.3769       C52-C22=1.4083       C52-C27=1.3664       
C52-H49=1.0790       C53-C21=1.4071       C53-H28=1.0803       C53-C36=1.3741       C54-C7=1.3955        C54-C41=1.3925       
C54-C48=1.4633       C55-N9=1.3110        C55-H18=1.0799       C55-C32=1.4130       C56-N12=1.3135       C56-C39=1.4445       
C56-C50=1.4483       H57-C38=1.0810       H58-C19=1.0798       H59-C2=1.0794        
 C  H  Rav=1.0794 sigma=0.0018  Rmin=1.0744  Rmax=1.0830    15
 C  C  Rav=1.4115 sigma=0.0298  Rmin=1.3664  Rmax=1.4770    38
 N  H  Rav=1.0048 sigma=0.0000  Rmin=1.0048  Rmax=1.0048     1
 N  C  Rav=1.3195 sigma=0.0547  Rmin=1.1466  Rmax=1.3796    13
 N  N  Rav=1.2938 sigma=0.0000  Rmin=1.2938  Rmax=1.2938     1

 selected bond angles (degree)
 --------------------
C41-C2-C19=120.30              H59-C2-C19=119.80              H59-C2-C41=119.88              C34-C5-N20=127.64              
C45-C5-N20=112.67              C45-C5-C34=119.62              C47-C7-C16=119.03              C54-C7-C16=119.59              
C54-C7-C47=119.48              C55-N9-N35=121.18              

 selected dihedral angles (degree)
 ---------------------------------

           -------------------------------------------------
          |                Final Singlepoint                |
           -------------------------------------------------

          ...................................................
          :                      SETUP                      :
          :.................................................:
          :  # basis functions                 188          :
          :  # atomic orbitals                 188          :
          :  # shells                          102          :
          :  # electrons                       196          :
          :  max. iterations                   250          :
          :  Hamiltonian                  GFN2-xTB          :
          :  restarted?                      false          :
          :  GBSA solvation                  false          :
          :  PC potential                    false          :
          :  electronic temp.          300.0000000     K    :
          :  accuracy                    1.0000000          :
          :  -> integral cutoff          0.2500000E+02      :
          :  -> integral neglect         0.1000000E-07      :
          :  -> SCF convergence          0.1000000E-05 Eh   :
          :  -> wf. convergence          0.1000000E-03 e    :
          :  Broyden damping             0.4000000          :
          :  net charge                          0          :
          :  unpaired electrons                  0          :
          ...................................................

 iter      E             dE          RMSdq      gap      omega  full diag
   1   -108.2801431 -0.108280E+03  0.588E-05    0.51       0.0  T
   2   -108.2801431  0.900400E-10  0.572E-05    0.51     227.4  T
   3   -108.2801431 -0.195882E-09  0.286E-05    0.51     454.5  T

   *** convergence criteria satisfied after 3 iterations ***

         #    Occupation            Energy/Eh            Energy/eV
      -------------------------------------------------------------
         1        2.0000           -0.6973565             -18.9760
       ...           ...                  ...                  ...
        92        2.0000           -0.4076605             -11.0930
        93        2.0000           -0.3803332             -10.3494
        94        2.0000           -0.3795249             -10.3274
        95        2.0000           -0.3765745             -10.2471
        96        2.0000           -0.3702915             -10.0761
        97        2.0000           -0.3659611              -9.9583
        98        1.9999           -0.3582877              -9.7495 (HOMO)
        99        0.0001           -0.3396256              -9.2417 (LUMO)
       100                         -0.2889199              -7.8619
       101                         -0.2873776              -7.8199
       102                         -0.2829819              -7.7003
       103                         -0.2767109              -7.5297
       ...                                ...                  ...
       188                          1.1635133              31.6608
      -------------------------------------------------------------
                  HL-Gap            0.0186621 Eh            0.5078 eV
             Fermi-level           -0.3489565 Eh           -9.4956 eV

 SCC (total)                   0 d,  0 h,  0 min,  0.065 sec
 SCC setup                      ...        0 min,  0.000 sec (  0.641%)
 Dispersion                     ...        0 min,  0.001 sec (  1.007%)
 classical contributions        ...        0 min,  0.000 sec (  0.274%)
 integral evaluation            ...        0 min,  0.017 sec ( 25.515%)
 iterations                     ...        0 min,  0.012 sec ( 18.632%)
 molecular gradient             ...        0 min,  0.035 sec ( 53.423%)
 printout                       ...        0 min,  0.000 sec (  0.491%)

         :::::::::::::::::::::::::::::::::::::::::::::::::::::
         ::                     SUMMARY                     ::
         :::::::::::::::::::::::::::::::::::::::::::::::::::::
         :: total energy            -106.410895493454 Eh    ::
         :: gradient norm              0.002270087068 Eh/a0 ::
         :: HOMO-LUMO gap              0.507821508977 eV    ::
         ::.................................................::
         :: SCC energy              -108.278111241757 Eh    ::
         :: -> isotropic ES            0.060116129545 Eh    ::
         :: -> anisotropic ES          0.005394239783 Eh    ::
         :: -> anisotropic XC          0.094031018238 Eh    ::
         :: -> dispersion             -0.094270070308 Eh    ::
         :: repulsion energy           1.867215748303 Eh    ::
         :: add. restraining           0.000000000000 Eh    ::
         :: total charge              -0.000000000000 e     ::
         :::::::::::::::::::::::::::::::::::::::::::::::::::::

           -------------------------------------------------
          |                Property Printout                |
           -------------------------------------------------

    * Orbital Energies and Occupations

         #    Occupation            Energy/Eh            Energy/eV
      -------------------------------------------------------------
         1        2.0000           -0.6973565             -18.9760
       ...           ...                  ...                  ...
        86        2.0000           -0.4276079             -11.6358
        87        2.0000           -0.4248664             -11.5612
        88        2.0000           -0.4229125             -11.5080
        89        2.0000           -0.4222479             -11.4900
        90        2.0000           -0.4198430             -11.4245
        91        2.0000           -0.4104415             -11.1687
        92        2.0000           -0.4076605             -11.0930
        93        2.0000           -0.3803332             -10.3494
        94        2.0000           -0.3795249             -10.3274
        95        2.0000           -0.3765745             -10.2471
        96        2.0000           -0.3702915             -10.0761
        97        2.0000           -0.3659611              -9.9583
        98        1.9999           -0.3582877              -9.7495 (HOMO)
        99        0.0001           -0.3396256              -9.2417 (LUMO)
       100                         -0.2889199              -7.8619
       101                         -0.2873776              -7.8199
       102                         -0.2829819              -7.7003
       103                         -0.2767109              -7.5297
       104                         -0.2699589              -7.3460
       105                         -0.2592354              -7.0542
       106                         -0.2491848              -6.7807
       107                         -0.2446863              -6.6583
       108                         -0.2354445              -6.4068
       109                         -0.2259249              -6.1477
       ...                                ...                  ...
       188                          1.1635133              31.6608
      -------------------------------------------------------------
                  HL-Gap            0.0186621 Eh            0.5078 eV
             Fermi-level           -0.3489565 Eh           -9.4956 eV

     #   Z          covCN         q      C6AA      α(0)
     1   1 H        0.926     0.045     2.378     2.412
     2   6 C        2.917    -0.026    28.656     8.778
     3   1 H        0.925     0.055     2.253     2.347
     4   1 H        0.926     0.070     2.087     2.259
     5   6 C        3.255     0.068    25.422     8.154
     6   1 H        0.926     0.053     2.283     2.363
     7   6 C        3.010     0.005    27.896     8.664
     8   7 N        0.911    -0.233    26.104     7.389
     9   7 N        1.935    -0.107    24.098     7.279
    10   1 H        0.926     0.046     2.366     2.405
    11   6 C        1.912     0.111    28.354     8.600
    12   7 N        1.844    -0.240    27.119     7.718
    13   6 C        2.975     0.187    24.006     8.037
    14   1 H        0.926     0.046     2.375     2.410
    15   1 H        0.860     0.173     1.256     1.756
    16   6 C        2.976     0.016    27.644     8.624
    17   6 C        3.370     0.142    22.047     7.343
    18   1 H        0.926     0.053     2.278     2.360
    19   6 C        2.926    -0.023    28.583     8.768
    20   7 N        1.847    -0.319    29.113     7.997
    21   6 C        2.985     0.016    27.636     8.623
    22   6 C        2.970     0.010    27.790     8.647
    23   6 C        3.172    -0.040    28.587     8.734
    24   6 C        2.942     0.084    26.119     8.382
    25   1 H        0.926     0.046     2.371     2.408
    26   6 C        2.974     0.013    27.727     8.637
    27   6 C        2.916    -0.028    28.688     8.783
    28   1 H        0.926     0.045     2.386     2.415
    29   6 C        2.922    -0.017    28.431     8.744
    30   6 C        2.964     0.090    26.006     8.365
    31   1 H        0.926     0.056     2.252     2.347
    32   6 C        2.975     0.021    27.544     8.609
    33   6 C        2.906    -0.052    29.286     8.873
    34   6 C        2.886     0.055    26.772     8.483
    35   7 N        1.942    -0.117    24.296     7.309
    36   6 C        2.913    -0.025    28.618     8.772
    37   7 N        1.834    -0.223    26.718     7.660
    38   6 C        2.914    -0.033    28.816     8.802
    39   6 C        2.987     0.007    27.853     8.657
    40   6 C        2.932    -0.022    28.555     8.764
    41   6 C        2.925    -0.027    28.672     8.781
    42   6 C        2.999     0.002    27.969     8.675
    43   7 N        1.902    -0.268    27.816     7.819
    44   1 H        0.926     0.032     2.558     2.501
    45   6 C        3.069    -0.026    28.580     8.766
    46   7 N        2.742    -0.116    23.527     7.204
    47   6 C        2.976     0.123    25.293     8.250
    48   6 C        3.040    -0.028    28.667     8.782
    49   1 H        0.926     0.045     2.382     2.414
    50   6 C        2.965    -0.003    28.087     8.693
    51   6 C        3.060     0.006    27.822     8.650
    52   6 C        2.919    -0.034    28.835     8.806
    53   6 C        2.920    -0.026    28.654     8.778
    54   6 C        2.979     0.024    27.459     8.596
    55   6 C        2.885     0.044    27.011     8.521
    56   6 C        2.963     0.096    25.863     8.342
    57   1 H        0.926     0.055     2.254     2.348
    58   1 H        0.926     0.046     2.373     2.409
    59   1 H        0.926     0.043     2.404     2.425

 Mol. C6AA /au·bohr⁶  :      61655.698683
 Mol. C8AA /au·bohr⁸  :    1592666.045720
 Mol. α(0) /au        :        398.434755


Wiberg/Mayer (AO) data.
largest (>0.10) Wiberg bond orders for each atom

 ---------------------------------------------------------------------------
     #   Z sym  total        # sym  WBO       # sym  WBO       # sym  WBO
 ---------------------------------------------------------------------------
     1   1 H    0.996 --    27 C    0.967
     2   6 C    3.985 --    19 C    1.447    41 C    1.436    59 H    0.968
     3   1 H    0.996 --    24 C    0.961
     4   1 H    0.995 --    29 C    0.964
     5   6 C    3.948 --    34 C    1.459    20 N    1.174    45 C    1.109
     6   1 H    0.996 --    34 C    0.959
     7   6 C    3.982 --    54 C    1.357    16 C    1.327    47 C    1.010
     8   7 N    2.980 --    11 C    2.802
     9   7 N    3.095 --    55 C    1.506    35 N    1.379    40 C    0.102
    10   1 H    0.998 --    33 C    0.968
    11   6 C    3.946 --     8 N    2.802    16 C    1.095
    12   7 N    3.031 --    56 C    1.478    34 C    1.322
    13   6 C    3.965 --    37 N    1.402    43 N    1.371    30 C    1.004
                            33 C    0.105
    14   1 H    0.997 --    41 C    0.968
    15   1 H    0.969 --    46 N    0.941
    16   6 C    3.988 --    19 C    1.358     7 C    1.327    11 C    1.095
    17   6 C    3.925 --    20 N    1.475    46 N    1.170    23 C    1.090
    18   1 H    0.996 --    55 C    0.955
    19   6 C    3.982 --     2 C    1.447    16 C    1.358    58 H    0.969
    20   7 N    2.953 --    17 C    1.475     5 C    1.174    45 C    0.107
    21   6 C    3.985 --    53 C    1.292    27 C    1.260    42 C    1.259
    22   6 C    3.905 --    52 C    1.313    26 C    1.307    32 C    1.091
    23   6 C    3.905 --    45 C    1.362    48 C    1.199    17 C    1.090
    24   6 C    3.972 --    37 N    1.434    33 C    1.428     3 H    0.961
    25   1 H    0.997 --    36 C    0.969
    26   6 C    3.985 --    22 C    1.307    38 C    1.244    42 C    1.215
    27   6 C    3.924 --    52 C    1.537    21 C    1.260     1 H    0.967
    28   1 H    0.997 --    53 C    0.968
    29   6 C    3.955 --    39 C    1.400    36 C    1.387     4 H    0.964
    30   6 C    3.971 --    35 N    1.432    40 C    1.335    13 C    1.004
    31   1 H    0.996 --    40 C    0.956
    32   6 C    3.981 --    40 C    1.418    55 C    1.293    22 C    1.091
    33   6 C    3.981 --    24 C    1.428    47 C    1.386    10 H    0.968
                            13 C    0.105
    34   6 C    3.947 --     5 C    1.459    12 N    1.322     6 H    0.959
    35   7 N    3.079 --    30 C    1.432     9 N    1.379
    36   6 C    3.985 --    53 C    1.500    29 C    1.387    25 H    0.969
    37   7 N    3.071 --    24 C    1.434    13 C    1.402
    38   6 C    3.984 --    50 C    1.449    26 C    1.244    57 H    0.957
    39   6 C    3.985 --    29 C    1.400    42 C    1.267    56 C    1.117
    40   6 C    3.971 --    32 C    1.418    30 C    1.335    31 H    0.956
                             9 N    0.102
    41   6 C    3.964 --     2 C    1.436    54 C    1.389    14 H    0.968
    42   6 C    3.976 --    39 C    1.267    21 C    1.259    26 C    1.215
    43   7 N    3.057 --    47 C    1.392    13 C    1.371
    44   1 H    0.998 --    51 C    0.970
    45   6 C    3.976 --    23 C    1.362    50 C    1.194     5 C    1.109
                            20 N    0.107
    46   7 N    3.520 --    51 C    1.176    17 C    1.170    15 H    0.941
    47   6 C    3.970 --    43 N    1.392    33 C    1.386     7 C    1.010
    48   6 C    3.963 --    51 C    1.526    23 C    1.199    54 C    1.041
    49   1 H    0.997 --    52 C    0.962
    50   6 C    3.980 --    38 C    1.449    45 C    1.194    56 C    1.132
    51   6 C    3.871 --    48 C    1.526    46 N    1.176    44 H    0.970
    52   6 C    3.988 --    27 C    1.537    22 C    1.313    49 H    0.962
    53   6 C    3.950 --    36 C    1.500    21 C    1.292    28 H    0.968
    54   6 C    3.987 --    41 C    1.389     7 C    1.357    48 C    1.041
    55   6 C    3.957 --     9 N    1.506    32 C    1.293    18 H    0.955
    56   6 C    3.963 --    12 N    1.478    50 C    1.132    39 C    1.117
    57   1 H    0.996 --    38 C    0.957
    58   1 H    0.997 --    19 C    0.969
    59   1 H    0.996 --     2 C    0.968
 ---------------------------------------------------------------------------

Topologies differ in bond orders
Writing corrected topology to xtbtopo.sdf

molecular dipole:
                 x           y           z       tot (Debye)
 q only:       -1.275       1.224       0.712
   full:       -1.150       1.015       1.504       5.461
molecular quadrupole (traceless):
                xx          xy          yy          xz          yz          zz
 q only:       20.025     -19.057      -6.699       7.600     -28.117     -13.326
  q+dip:       30.926     -26.482      -8.962      13.983     -41.388     -21.964
   full:       32.289     -20.663     -10.001      12.369     -47.052     -22.288

           -------------------------------------------------
          |                Geometry Summary                 |
           -------------------------------------------------

      molecular mass/u    :      548.5564342
   center of mass at/Å    :        0.1658793      -0.1156001      -0.0764414
  moments of inertia/u·Å² :        0.4214904E+04   0.6963459E+04   0.9095367E+04
rotational constants/cm⁻¹ :        0.3999529E-02   0.2420871E-02   0.1853431E-02

 * 60 selected distances

     #   Z          #   Z                                           value/Å
     8   7 N       11   6 C                                       1.1466061
     7   6 C       16   6 C                                       1.3997184
     2   6 C       19   6 C                                       1.3822884
    16   6 C       19   6 C                                       1.3947322
     5   6 C       20   7 N                                       1.3795598
    17   6 C       20   7 N                                       1.3082910
    17   6 C       23   6 C                                       1.4562711 (max)
     3   1 H       24   6 C                                       1.0830239
    22   6 C       26   6 C                                       1.4139284
     1   1 H       27   6 C                                       1.0799792
    21   6 C       27   6 C                                       1.4104367
     4   1 H       29   6 C                                       1.0784553
    10   1 H       33   6 C                                       1.0776710
    24   6 C       33   6 C                                       1.3897409
     5   6 C       34   6 C                                       1.3685216
     6   1 H       34   6 C                                       1.0809202
    12   7 N       34   6 C                                       1.3399314
     9   7 N       35   7 N                                       1.2938291
    30   6 C       35   7 N                                       1.3237473
    25   1 H       36   6 C                                       1.0796453
    29   6 C       36   6 C                                       1.3907329
    13   6 C       37   7 N                                       1.3188894
    24   6 C       37   7 N                                       1.3245649
    26   6 C       38   6 C                                       1.4219228
    29   6 C       39   6 C                                       1.3888503
    30   6 C       40   6 C                                       1.4015276
    31   1 H       40   6 C                                       1.0782067
    32   6 C       40   6 C                                       1.3897615
     2   6 C       41   6 C                                       1.3845466
    14   1 H       41   6 C                                       1.0800337
    21   6 C       42   6 C                                       1.4150200
    26   6 C       42   6 C                                       1.4291341
    39   6 C       42   6 C                                       1.4127966
    13   6 C       43   7 N                                       1.3276545
    23   6 C       45   6 C                                       1.3917933
    15   1 H       46   7 N                                       1.0048228 (min)
    17   6 C       46   7 N                                       1.3562712
    33   6 C       47   6 C                                       1.3904549
    43   7 N       47   6 C                                       1.3272507
    23   6 C       48   6 C                                       1.4242767
    38   6 C       50   6 C                                       1.3827466
    45   6 C       50   6 C                                       1.4228779
    44   1 H       51   6 C                                       1.0744002
    46   7 N       51   6 C                                       1.3759085
    48   6 C       51   6 C                                       1.3769170
    22   6 C       52   6 C                                       1.4083230
    27   6 C       52   6 C                                       1.3664222
    49   1 H       52   6 C                                       1.0789637
    21   6 C       53   6 C                                       1.4071239
    28   1 H       53   6 C                                       1.0803096
    36   6 C       53   6 C                                       1.3741450
     7   6 C       54   6 C                                       1.3955432
    41   6 C       54   6 C                                       1.3924529
     9   7 N       55   6 C                                       1.3109559
    18   1 H       55   6 C                                       1.0799309
    32   6 C       55   6 C                                       1.4130435
    12   7 N       56   6 C                                       1.3134610
    38   6 C       57   1 H                                       1.0809515
    19   6 C       58   1 H                                       1.0797727
     2   6 C       59   1 H                                       1.0794485

 * 5 distinct bonds (by element types)

   Z      Z             #   av. dist./Å        max./Å        min./Å
Note: The following floating-point exceptions are signalling: IEEE_UNDERFLOW_FLAG IEEE_DENORMAL
normal termination of xtb
   1 H    6 C          15     1.0794475     1.0830239     1.0744002
   6 C    6 C          30     1.3998683     1.4562711     1.3664222
   1 H    7 N           1     1.0048228     1.0048228     1.0048228
   6 C    7 N          13     1.3194686     1.3795598     1.1466061
   7 N    7 N           1     1.2938291     1.2938291     1.2938291


optimized geometry written to: xtbopt.sdf


           -------------------------------------------------
          | TOTAL ENERGY             -106.410895493454 Eh   |
          | GRADIENT NORM               0.002270087068 Eh/α |
          | HOMO-LUMO GAP               0.507821508977 eV   |
           -------------------------------------------------

------------------------------------------------------------------------
 * finished run on 2026/08/25 at 07:10:02.390     
------------------------------------------------------------------------
 total:
 * wall-time:     0 d,  0 h,  0 min,  4.046 sec
 *  cpu-time:     0 d,  0 h,  0 min,  4.004 sec
 * ratio c/w:     0.990 speedup
 SCF:
 * wall-time:     0 d,  0 h,  0 min,  0.144 sec
 *  cpu-time:     0 d,  0 h,  0 min,  0.144 sec
 * ratio c/w:     0.999 speedup
 ANC optimizer:
 * wall-time:     0 d,  0 h,  0 min,  3.849 sec
 *  cpu-time:     0 d,  0 h,  0 min,  3.836 sec
 * ratio c/w:     0.997 speedup

