      -----------------------------------------------------------      
     |                   =====================                   |     
     |                           x T B                           |     
     |                   =====================                   |     
     |                         S. Grimme                         |     
     |          Mulliken Center for Theoretical Chemistry        |     
     |                    University of Bonn                     |     
      -----------------------------------------------------------      

   * xtb version 6.7.1 (edcfbbe) compiled by 'conda@5dfe00f5fb80' on 2026-06-10

   xtb is free software: you can redistribute it and/or modify it under
   the terms of the GNU Lesser General Public License as published by
   the Free Software Foundation, either version 3 of the License, or
   (at your option) any later version.
   
   xtb is distributed in the hope that it will be useful,
   but WITHOUT ANY WARRANTY; without even the implied warranty of
   MERCHANTABILITY or FITNESS FOR A PARTICULAR PURPOSE.  See the
   GNU Lesser General Public License for more details.
   
   Cite this work as:
   * C. Bannwarth, E. Caldeweyher, S. Ehlert, A. Hansen, P. Pracht,
     J. Seibert, S. Spicher, S. Grimme, WIREs Comput. Mol. Sci., 2020, 11,
     e01493. DOI: 10.1002/wcms.1493
   
   for GFN2-xTB:
   * C. Bannwarth, S. Ehlert and S. Grimme., J. Chem. Theory Comput., 2019,
     15, 1652-1671. DOI: 10.1021/acs.jctc.8b01176
   for GFN1-xTB:
   * S. Grimme, C. Bannwarth, P. Shushkov, J. Chem. Theory Comput., 2017,
     13, 1989-2009. DOI: 10.1021/acs.jctc.7b00118
   for GFN0-xTB:
   * P. Pracht, E. Caldeweyher, S. Ehlert, S. Grimme, ChemRxiv, 2019, preprint.
     DOI: 10.26434/chemrxiv.8326202.v1
   for GFN-FF:
   * S. Spicher and S. Grimme, Angew. Chem. Int. Ed., 2020, 59, 15665-15673.
     DOI: 10.1002/anie.202004239
   
   for ALPB and GBSA implicit solvation:
   * S. Ehlert, M. Stahn, S. Spicher, S. Grimme, J. Chem. Theory Comput.,
     2021, 17, 4250-4261. DOI: 10.1021/acs.jctc.1c00471
   
   for ddCOSMO and CPCM-X implicit solvation:
   * M. Stahn, S. Ehlert, S. Grimme, J. Phys. Chem. A,
     2023, XX, XXXX-XXXX. DOI: 10.1021/acs.jpca.3c04382
   
   for DFT-D4:
   * E. Caldeweyher, C. Bannwarth and S. Grimme, J. Chem. Phys., 2017,
     147, 034112. DOI: 10.1063/1.4993215
   * E. Caldeweyher, S. Ehlert, A. Hansen, H. Neugebauer, S. Spicher,
     C. Bannwarth and S. Grimme, J. Chem. Phys., 2019, 150, 154122.
     DOI: 10.1063/1.5090222
   * E. Caldeweyher, J.-M. Mewes, S. Ehlert and S. Grimme, Phys. Chem. Chem. Phys.
     2020, 22, 8499-8512. DOI: 10.1039/D0CP00502A
   
   for sTDA-xTB:
   * S. Grimme and C. Bannwarth, J. Chem. Phys., 2016, 145, 054103.
     DOI: 10.1063/1.4959605
   
   in the mass-spec context:
   * V. Asgeirsson, C. Bauer and S. Grimme, Chem. Sci., 2017, 8, 4879.
     DOI: 10.1039/c7sc00601b
   * J. Koopman and S. Grimme, ACS Omega 2019, 4, 12, 15120-15133.
     DOI: 10.1021/acsomega.9b02011
   
   for metadynamics refer to:
   * S. Grimme, J. Chem. Theory Comput., 2019, 155, 2847-2862
     DOI: 10.1021/acs.jctc.9b00143
   
   for SPH calculations refer to:
   * S. Spicher and S. Grimme, J. Chem. Theory Comput., 2021, 17, 1701-1714
     DOI: 10.1021/acs.jctc.0c01306
   
   for ONIOM refer to:
   * C. Plett, A. Katbashev, S. Ehlert, S. Grimme, M. Bursch,
     Phys. Chem. Chem. Phys., 2023, 25, 17860-17868. DOI: 10.1039/D3CP02178E
   
   for DIPRO refer to:
   * J. Kohn, N. Gildemeister, S. Grimme, D. Fazzi, A. Hansen,
     J. Chem. Phys., 2023, just accepted.
   
   for PTB refer to:
   * S. Grimme, M. Mueller, A. Hansen, J. Chem. Phys., 2023, 158, 124111.
     DOI: 10.1063/5.0137838
   
   with help from (in alphabetical order)
   P. Atkinson, C. Bannwarth, F. Bohle, G. Brandenburg, E. Caldeweyher
   M. Checinski, S. Dohm, S. Ehlert, S. Ehrlich, I. Gerasimov, C. Hölzer
   A. Katbashev, J. Kohn, J. Koopman, C. Lavigne, S. Lehtola, F. März, M. Müller,
   F. Musil, H. Neugebauer, J. Pisarek, C. Plett, P. Pracht, F. Pultar,
   J. Seibert, P. Shushkov, S. Spicher, M. Stahn, M. Steiner, T. Strunk,
   J. Stückrath, T. Rose, and J. Unsleber
   
 * started run on 2026/08/20 at 06:25:58.400     
   ID    Z sym.   atoms
    1    1 H      1, 2, 5, 8, 9, 16, 19, 21, 25, 32, 36, 38, 42, 47-50, 58
    2    6 C      3, 4, 6, 12, 14, 15, 17, 20, 22-24, 27-31, 33-35, 37,
                  39-41, 44, 45, 51, 53, 55-57, 59-61
    3    7 N      7, 11, 13, 18, 43, 46, 54
    4   16 S      10, 26
    5    8 O      52

           -------------------------------------------------
          |                Calculation Setup                |
           -------------------------------------------------

          program call               : xtb 00076.sdf --opt loose --cycles 500
          coordinate file            : 00076.sdf
          omp threads                :                     1


           -------------------------------------------------
          |                 G F N 2 - x T B                 |
           -------------------------------------------------

        Reference                      10.1021/acs.jctc.8b01176
      * Hamiltonian:
        H0-scaling (s, p, d)           1.850000    2.230000    2.230000
        zeta-weighting                 0.500000
      * Dispersion:
        s8                             2.700000
        a1                             0.520000
        a2                             5.000000
        s9                             5.000000
      * Repulsion:
        kExp                           1.500000    1.000000
        rExp                           1.000000
      * Coulomb:
        alpha                          2.000000
        third order                    shell-resolved
        anisotropic                    true
        a3                             3.000000
        a5                             4.000000
        cn-shift                       1.200000
        cn-exp                         4.000000
        max-rad                        5.000000


          ...................................................
          :                      SETUP                      :
          :.................................................:
          :  # basis functions                 202          :
          :  # atomic orbitals                 200          :
          :  # shells                          106          :
          :  # electrons                       203          :
          :  max. iterations                   250          :
          :  Hamiltonian                  GFN2-xTB          :
          :  restarted?                      false          :
          :  GBSA solvation                  false          :
          :  PC potential                    false          :
          :  electronic temp.          300.0000000     K    :
          :  accuracy                    1.0000000          :
          :  -> integral cutoff          0.2500000E+02      :
          :  -> integral neglect         0.1000000E-07      :
          :  -> SCF convergence          0.1000000E-05 Eh   :
          :  -> wf. convergence          0.1000000E-03 e    :
          :  Broyden damping             0.4000000          :
          :  net charge                          0          :
          :  unpaired electrons                  0          :
          ...................................................

 iter      E             dE          RMSdq      gap      omega  full diag
   1   -111.9866388 -0.111987E+03  0.530E+00    0.59       0.0  T
   2   -112.0492676 -0.626288E-01  0.351E+00    1.15       1.0  T
   3   -111.9169844  0.132283E+00  0.224E+00    0.41       1.0  T
   4   -112.1349784 -0.217994E+00  0.704E-01    1.18       1.0  T
   5   -112.1666692 -0.316908E-01  0.266E-01    0.81       1.0  T
   6   -112.1694036 -0.273443E-02  0.109E-01    0.84       1.0  T
   7   -112.1697512 -0.347552E-03  0.508E-02    0.80       1.0  T
   8   -112.1698530 -0.101836E-03  0.197E-02    0.81       1.0  T
   9   -112.1698615 -0.854729E-05  0.965E-03    0.81       1.3  T
  10   -112.1698637 -0.214654E-05  0.448E-03    0.81       2.9  T
  11   -112.1698642 -0.506581E-06  0.186E-03    0.81       6.9  T
  12   -112.1698643 -0.651748E-07  0.102E-03    0.81      12.6  T
  13   -112.1698643 -0.171427E-07  0.577E-04    0.81      22.2  T
  14   -112.1698643 -0.311618E-08  0.282E-04    0.81      45.4  T

   *** convergence criteria satisfied after 14 iterations ***

         #    Occupation            Energy/Eh            Energy/eV
      -------------------------------------------------------------
         1        2.0000           -0.7690313             -20.9264
       ...           ...                  ...                  ...
        96        2.0000           -0.3963954             -10.7865
        97        2.0000           -0.3946727             -10.7396
        98        2.0000           -0.3921454             -10.6708
        99        2.0000           -0.3821285             -10.3982
       100        2.0000           -0.3780779             -10.2880
       101        2.0000           -0.3716782             -10.1139
       102        1.0000           -0.3262517              -8.8778 (HOMO)
       103        0.0000           -0.2964594              -8.0671 (LUMO)
       104                         -0.2822706              -7.6810
       105                         -0.2752077              -7.4888
       106                         -0.2736122              -7.4454
       107                         -0.2699430              -7.3455
       ...                                ...                  ...
       200                          1.2041728              32.7672
      -------------------------------------------------------------
                  HL-Gap            0.0297923 Eh            0.8107 eV
             Fermi-level           -0.3301600 Eh           -8.9841 eV

 SCC (total)                   0 d,  0 h,  0 min,  0.114 sec
 SCC setup                      ...        0 min,  0.001 sec (  0.473%)
 Dispersion                     ...        0 min,  0.001 sec (  0.990%)
 classical contributions        ...        0 min,  0.000 sec (  0.156%)
 integral evaluation            ...        0 min,  0.013 sec ( 11.055%)
 iterations                     ...        0 min,  0.062 sec ( 54.831%)
 molecular gradient             ...        0 min,  0.036 sec ( 31.249%)
 printout                       ...        0 min,  0.001 sec (  1.236%)

         :::::::::::::::::::::::::::::::::::::::::::::::::::::
         ::                     SUMMARY                     ::
         :::::::::::::::::::::::::::::::::::::::::::::::::::::
         :: total energy            -110.528699395187 Eh    ::
         :: gradient norm              0.346602733727 Eh/a0 ::
         :: HOMO-LUMO gap              0.810690214707 eV    ::
         ::.................................................::
         :: SCC energy              -112.168694134758 Eh    ::
         :: -> isotropic ES            0.064124945372 Eh    ::
         :: -> anisotropic ES          0.010086098243 Eh    ::
         :: -> anisotropic XC          0.106516878831 Eh    ::
         :: -> dispersion             -0.083717503173 Eh    ::
         :: repulsion energy           1.639994739571 Eh    ::
         :: add. restraining           0.000000000000 Eh    ::
         :: total charge               0.000000000000 e     ::
         :::::::::::::::::::::::::::::::::::::::::::::::::::::

      ----------------------------------------------------------- 
     |                   =====================                   |
     |                        A N C O P T                        |
     |                   =====================                   |
     |               Approximate Normal Coordinate               |
     |                Rational Function Optimizer                |
      ----------------------------------------------------------- 
      ----------------------------------------------------------- 
     |                   =====================                   |
     |                        A N C O P T                        |
     |                   =====================                   |
     |               Approximate Normal Coordinate               |
     |                Rational Function Optimizer                |
      ----------------------------------------------------------- 

          ...................................................
          :                      SETUP                      :
          :.................................................:
          :   optimization level             loose          :
          :   max. optcycles                   500          :
          :   ANC micro-cycles                  20          :
          :   degrees of freedom               177          :
          :.................................................:
          :   RF solver                   davidson          :
          :   write xtbopt.log                true          :
          :   linear?                        false          :
          :   energy convergence         0.5000000E-04 Eh   :
          :   grad. convergence          0.4000000E-02 Eh/α :
          :   maxmium RF displ.          1.0000000          :
          :   Hlow (freq-cutoff)         0.1000000E-01      :
          :   Hmax (freq-cutoff)         5.0000000          :
          :   S6 in model hess.         20.0000000          :
          ...................................................

generating ANC from exact Hessian ...
Using Lindh-Hessian (1995)
 Shifting diagonal of input Hessian by    9.9503087351358616E-003
 Lowest  eigenvalues of input Hessian
    0.000000    0.000000    0.000000    0.000000    0.000000    0.000000
    0.010000    0.010034    0.010074    0.010122    0.010165    0.010267
    0.010451    0.010652    0.010992    0.011057    0.011397    0.011533
 Highest eigenvalues
    1.995236    2.021254    2.059854    2.299662    2.526989    2.559527


........................................................................
.............................. CYCLE    1 ..............................
........................................................................

 iter      E             dE          RMSdq      gap      omega  full diag
   1   -112.1698643 -0.112170E+03  0.115E-04    0.81       0.0  T
   2   -112.1698643  0.217426E-11  0.858E-05    0.81     149.3  T
   3   -112.1698643 -0.258368E-09  0.565E-05    0.81     226.5  T
     SCC iter.                  ...        0 min,  0.014 sec
     gradient                   ...        0 min,  0.035 sec
 * total energy  :  -110.5286994 Eh     change       -0.4219601E-08 Eh
   gradient norm :     0.3466026 Eh/α   predicted     0.0000000E+00 (-100.00%)
   displ. norm   :     0.5733504 α      lambda       -0.1242192E+00
   maximum displ.:     0.1250523 α      in ANC's #45, #65, #34, ...

........................................................................
.............................. CYCLE    2 ..............................
........................................................................

 iter      E             dE          RMSdq      gap      omega  full diag
   1   -112.2847325 -0.112285E+03  0.350E-01    1.06       0.0  T
   2   -112.2847975 -0.649970E-04  0.279E-01    0.87       1.0  T
   3   -112.2866008 -0.180336E-02  0.153E-01    0.98       1.0  T
   4   -112.2871595 -0.558633E-03  0.547E-02    0.92       1.0  T
   5   -112.2872877 -0.128223E-03  0.218E-02    0.93       1.0  T
   6   -112.2873037 -0.160175E-04  0.118E-02    0.93       1.1  T
   7   -112.2873066 -0.292783E-05  0.665E-03    0.93       1.9  T
   8   -112.2873075 -0.858204E-06  0.378E-03    0.93       3.4  T
   9   -112.2873077 -0.217184E-06  0.201E-03    0.93       6.4  T
  10   -112.2873078 -0.672819E-07  0.809E-04    0.93      15.8  T
  11   -112.2873078 -0.160590E-07  0.322E-04    0.93      39.7  T
     SCC iter.                  ...        0 min,  0.047 sec
     gradient                   ...        0 min,  0.035 sec
 * total energy  :  -110.6269670 Eh     change       -0.9826758E-01 Eh
   gradient norm :     0.1714104 Eh/α   predicted    -0.8270508E-01 ( -15.84%)
   displ. norm   :     0.6672719 α      lambda       -0.8141208E-01
   maximum displ.:     0.1763612 α      in ANC's #34, #45, #65, ...

........................................................................
.............................. CYCLE    3 ..............................
........................................................................

 iter      E             dE          RMSdq      gap      omega  full diag
   1   -112.4404666 -0.112440E+03  0.379E-01    1.18       0.0  T
   2   -112.4406913 -0.224715E-03  0.287E-01    1.02       1.0  T
   3   -112.4421072 -0.141595E-02  0.165E-01    1.13       1.0  T
   4   -112.4428419 -0.734673E-03  0.531E-02    1.06       1.0  T
   5   -112.4429672 -0.125290E-03  0.214E-02    1.08       1.0  T
   6   -112.4429830 -0.158025E-04  0.109E-02    1.08       1.2  T
   7   -112.4429851 -0.209248E-05  0.640E-03    1.08       2.0  T
   8   -112.4429859 -0.825836E-06  0.348E-03    1.08       3.7  T
   9   -112.4429861 -0.163071E-06  0.176E-03    1.08       7.3  T
  10   -112.4429861 -0.483097E-07  0.719E-04    1.08      17.8  T
  11   -112.4429861 -0.130664E-07  0.302E-04    1.08      42.4  T
     SCC iter.                  ...        0 min,  0.047 sec
     gradient                   ...        0 min,  0.035 sec
 * total energy  :  -110.6830420 Eh     change       -0.5607507E-01 Eh
   gradient norm :     0.0660160 Eh/α   predicted    -0.5883053E-01 (   4.91%)
   displ. norm   :     0.6220061 α      lambda       -0.2930309E-01
   maximum displ.:     0.2529611 α      in ANC's #34, #45, #39, ...

........................................................................
.............................. CYCLE    4 ..............................
........................................................................

 iter      E             dE          RMSdq      gap      omega  full diag
   1   -112.5178975 -0.112518E+03  0.306E-01    1.13       0.0  T
   2   -112.5180027 -0.105178E-03  0.191E-01    1.09       1.0  T
   3   -112.5170009  0.100172E-02  0.138E-01    1.17       1.0  T
   4   -112.5183390 -0.133810E-02  0.239E-02    1.10       1.0  T
   5   -112.5183615 -0.224799E-04  0.123E-02    1.11       1.0  T
   6   -112.5183665 -0.500973E-05  0.581E-03    1.11       2.2  T
   7   -112.5183670 -0.482261E-06  0.319E-03    1.11       4.0  T
   8   -112.5183672 -0.220774E-06  0.192E-03    1.11       6.7  T
   9   -112.5183673 -0.529201E-07  0.852E-04    1.11      15.0  T
  10   -112.5183673 -0.148619E-07  0.339E-04    1.11      37.7  T
     SCC iter.                  ...        0 min,  0.042 sec
     gradient                   ...        0 min,  0.035 sec
 * total energy  :  -110.7048315 Eh     change       -0.2178949E-01 Eh
   gradient norm :     0.0460799 Eh/α   predicted    -0.2032015E-01 (  -6.74%)
   displ. norm   :     0.6142130 α      lambda       -0.1550184E-01
   maximum displ.:     0.2725849 α      in ANC's #34, #39, #14, ...

........................................................................
.............................. CYCLE    5 ..............................
........................................................................

 iter      E             dE          RMSdq      gap      omega  full diag
   1   -112.5593733 -0.112559E+03  0.312E-01    1.12       0.0  T
   2   -112.5594453 -0.720631E-04  0.183E-01    1.09       1.0  T
   3   -112.5585096  0.935729E-03  0.119E-01    1.17       1.0  T
   4   -112.5596123 -0.110269E-02  0.172E-02    1.10       1.0  T
   5   -112.5596177 -0.537485E-05  0.102E-02    1.11       1.3  T
   6   -112.5596207 -0.302183E-05  0.468E-03    1.11       2.7  T
   7   -112.5596213 -0.602305E-06  0.226E-03    1.11       5.7  T
   8   -112.5596214 -0.114857E-06  0.122E-03    1.11      10.5  T
   9   -112.5596214 -0.116557E-07  0.567E-04    1.11      22.6  T
  10   -112.5596214 -0.772675E-08  0.258E-04    1.11      49.6  T
     SCC iter.                  ...        0 min,  0.043 sec
     gradient                   ...        0 min,  0.035 sec
 * total energy  :  -110.7155303 Eh     change       -0.1069880E-01 Eh
   gradient norm :     0.0364851 Eh/α   predicted    -0.1067502E-01 (  -0.22%)
   displ. norm   :     0.7155562 α      lambda       -0.1215547E-01
   maximum displ.:     0.2547936 α      in ANC's #34, #14, #20, ...

........................................................................
.............................. CYCLE    6 ..............................
........................................................................

 iter      E             dE          RMSdq      gap      omega  full diag
   1   -112.5643328 -0.112564E+03  0.539E-01    1.15       0.0  T
   2   -112.5645323 -0.199492E-03  0.307E-01    1.07       1.0  T
   3   -112.5623618  0.217044E-02  0.180E-01    1.21       1.0  T
   4   -112.5648960 -0.253412E-02  0.203E-02    1.11       1.0  T
   5   -112.5648999 -0.391314E-05  0.120E-02    1.11       1.1  T
   6   -112.5649032 -0.337878E-05  0.517E-03    1.11       2.5  T
   7   -112.5649040 -0.791146E-06  0.269E-03    1.11       4.8  T
   8   -112.5649043 -0.242342E-06  0.106E-03    1.11      12.1  T
   9   -112.5649043 -0.117566E-07  0.583E-04    1.11      21.9  T
  10   -112.5649043 -0.842668E-08  0.248E-04    1.11      51.7  T
     SCC iter.                  ...        0 min,  0.043 sec
     gradient                   ...        0 min,  0.036 sec
 * total energy  :  -110.7185527 Eh     change       -0.3022414E-02 Eh
   gradient norm :     0.0735253 Eh/α   predicted    -0.9189665E-02 ( 204.05%)
   displ. norm   :     0.4420779 α      lambda       -0.1228666E-01
   maximum displ.:     0.1659404 α      in ANC's #2, #14, #5, ...

........................................................................
.............................. CYCLE    7 ..............................
........................................................................

 iter      E             dE          RMSdq      gap      omega  full diag
   1   -112.5896514 -0.112590E+03  0.403E-01    1.13       0.0  T
   2   -112.5897777 -0.126276E-03  0.225E-01    1.08       1.0  T
   3   -112.5892271  0.550519E-03  0.928E-02    1.16       1.0  T
   4   -112.5898788 -0.651608E-03  0.116E-02    1.10       1.1  T
   5   -112.5898809 -0.218080E-05  0.670E-03    1.10       1.9  T
   6   -112.5898825 -0.160005E-05  0.270E-03    1.10       4.7  T
   7   -112.5898828 -0.242037E-06  0.128E-03    1.10      10.0  T
   8   -112.5898828 -0.455329E-07  0.645E-04    1.10      19.8  T
   9   -112.5898828 -0.782575E-08  0.299E-04    1.10      42.8  T
     SCC iter.                  ...        0 min,  0.038 sec
     gradient                   ...        0 min,  0.036 sec
 * total energy  :  -110.7252385 Eh     change       -0.6685772E-02 Eh
   gradient norm :     0.0497041 Eh/α   predicted    -0.7343935E-02 (   9.84%)
   displ. norm   :     0.4692147 α      lambda       -0.5999814E-02
   maximum displ.:     0.1533972 α      in ANC's #14, #12, #16, ...

........................................................................
.............................. CYCLE    8 ..............................
........................................................................

 iter      E             dE          RMSdq      gap      omega  full diag
   1   -112.5830420 -0.112583E+03  0.275E-01    1.07       0.0  T
   2   -112.5831164 -0.743365E-04  0.155E-01    1.07       1.0  T
   3   -112.5829310  0.185348E-03  0.546E-02    1.04       1.0  T
   4   -112.5831539 -0.222869E-03  0.114E-02    1.07       1.1  T
   5   -112.5831579 -0.405037E-05  0.596E-03    1.06       2.1  T
   6   -112.5831590 -0.106718E-05  0.270E-03    1.06       4.8  T
   7   -112.5831591 -0.129075E-06  0.136E-03    1.06       9.4  T
   8   -112.5831592 -0.450631E-07  0.805E-04    1.06      15.9  T
   9   -112.5831592 -0.109810E-07  0.385E-04    1.06      33.3  T
     SCC iter.                  ...        0 min,  0.039 sec
     gradient                   ...        0 min,  0.036 sec
 * total energy  :  -110.7288317 Eh     change       -0.3593147E-02 Eh
   gradient norm :     0.0331126 Eh/α   predicted    -0.3660378E-02 (   1.87%)
   displ. norm   :     0.6194106 α      lambda       -0.6427878E-02
   maximum displ.:     0.3028472 α      in ANC's #14, #10, #5, ...

........................................................................
.............................. CYCLE    9 ..............................
........................................................................

 iter      E             dE          RMSdq      gap      omega  full diag
   1   -112.5822719 -0.112582E+03  0.273E-01    1.03       0.0  T
   2   -112.5823416 -0.696559E-04  0.152E-01    1.01       1.0  T
   3   -112.5822991  0.425026E-04  0.362E-02    1.00       1.0  T
   4   -112.5823656 -0.664678E-04  0.122E-02    1.00       1.0  T
   5   -112.5823680 -0.246416E-05  0.599E-03    1.00       2.1  T
   6   -112.5823690 -0.927405E-06  0.260E-03    1.00       4.9  T
   7   -112.5823691 -0.131387E-06  0.142E-03    1.00       9.0  T
   8   -112.5823691 -0.244474E-07  0.837E-04    1.00      15.3  T
   9   -112.5823691 -0.136200E-07  0.423E-04    1.00      30.3  T
     SCC iter.                  ...        0 min,  0.038 sec
     gradient                   ...        0 min,  0.036 sec
 * total energy  :  -110.7330119 Eh     change       -0.4180225E-02 Eh
   gradient norm :     0.0399719 Eh/α   predicted    -0.4447037E-02 (   6.38%)
   displ. norm   :     0.6225900 α      lambda       -0.5325967E-02
   maximum displ.:     0.2737411 α      in ANC's #14, #10, #5, ...

........................................................................
.............................. CYCLE   10 ..............................
........................................................................

 iter      E             dE          RMSdq      gap      omega  full diag
   1   -112.5888024 -0.112589E+03  0.202E-01    1.02       0.0  T
   2   -112.5888488 -0.463409E-04  0.127E-01    0.94       1.0  T
   3   -112.5885331  0.315672E-03  0.930E-02    1.01       1.0  T
   4   -112.5890607 -0.527562E-03  0.136E-02    0.96       1.0  T
   5   -112.5890622 -0.155197E-05  0.777E-03    0.96       1.6  T
   6   -112.5890648 -0.255206E-05  0.326E-03    0.96       3.9  T
   7   -112.5890650 -0.198077E-06  0.161E-03    0.96       8.0  T
   8   -112.5890651 -0.107499E-06  0.726E-04    0.96      17.6  T
   9   -112.5890651 -0.753707E-08  0.348E-04    0.96      36.7  T
     SCC iter.                  ...        0 min,  0.038 sec
     gradient                   ...        0 min,  0.036 sec
 * total energy  :  -110.7366645 Eh     change       -0.3652654E-02 Eh
   gradient norm :     0.0247900 Eh/α   predicted    -0.3695209E-02 (   1.17%)
   displ. norm   :     0.6104890 α      lambda       -0.3504049E-02
   maximum displ.:     0.2790628 α      in ANC's #10, #14, #5, ...

........................................................................
.............................. CYCLE   11 ..............................
........................................................................

 iter      E             dE          RMSdq      gap      omega  full diag
   1   -112.5969845 -0.112597E+03  0.182E-01    0.88       0.0  T
   2   -112.5970611 -0.765516E-04  0.116E-01    0.93       1.0  T
   3   -112.5969373  0.123769E-03  0.776E-02    0.86       1.0  T
   4   -112.5972539 -0.316644E-03  0.155E-02    0.90       1.0  T
   5   -112.5972618 -0.786483E-05  0.750E-03    0.89       1.7  T
   6   -112.5972648 -0.298621E-05  0.260E-03    0.90       4.9  T
   7   -112.5972649 -0.133697E-06  0.131E-03    0.90       9.8  T
   8   -112.5972650 -0.651114E-07  0.536E-04    0.90      23.9  T
   9   -112.5972650 -0.658052E-08  0.289E-04    0.90      44.3  T
     SCC iter.                  ...        0 min,  0.038 sec
     gradient                   ...        0 min,  0.036 sec
 * total energy  :  -110.7390897 Eh     change       -0.2425105E-02 Eh
   gradient norm :     0.0285034 Eh/α   predicted    -0.2405002E-02 (  -0.83%)
   displ. norm   :     0.7170019 α      lambda       -0.3518381E-02
   maximum displ.:     0.3238023 α      in ANC's #10, #14, #5, ...

........................................................................
.............................. CYCLE   12 ..............................
........................................................................

 iter      E             dE          RMSdq      gap      omega  full diag
   1   -112.5882754 -0.112588E+03  0.229E-01    0.95       0.0  T
   2   -112.5884131 -0.137739E-03  0.156E-01    0.84       1.0  T
   3   -112.5884624 -0.492486E-04  0.991E-02    0.93       1.0  T
   4   -112.5889099 -0.447590E-03  0.189E-02    0.88       1.0  T
   5   -112.5889155 -0.552057E-05  0.102E-02    0.88       1.3  T
   6   -112.5889213 -0.585655E-05  0.411E-03    0.88       3.1  T
   7   -112.5889215 -0.196474E-06  0.220E-03    0.88       5.8  T
   8   -112.5889217 -0.194478E-06  0.800E-04    0.88      16.0  T
   9   -112.5889217 -0.955232E-08  0.451E-04    0.88      28.4  T
     SCC iter.                  ...        0 min,  0.038 sec
     gradient                   ...        0 min,  0.036 sec
 * total energy  :  -110.7412649 Eh     change       -0.2175281E-02 Eh
   gradient norm :     0.0251235 Eh/α   predicted    -0.2663574E-02 (  22.45%)
   displ. norm   :     0.5402139 α      lambda       -0.2346667E-02
   maximum displ.:     0.2826194 α      in ANC's #10, #5, #14, ...

........................................................................
.............................. CYCLE   13 ..............................
........................................................................

 iter      E             dE          RMSdq      gap      omega  full diag
   1   -112.5999368 -0.112600E+03  0.153E-01    0.83       0.0  T
   2   -112.5999470 -0.101871E-04  0.926E-02    0.85       1.0  T
   3   -112.5997040  0.242989E-03  0.638E-02    0.80       1.0  T
   4   -112.5999982 -0.294236E-03  0.663E-03    0.84       1.9  T
   5   -112.5999990 -0.798489E-06  0.383E-03    0.84       3.3  T
   6   -112.5999995 -0.509008E-06  0.144E-03    0.84       8.9  T
   7   -112.5999996 -0.753167E-07  0.646E-04    0.84      19.8  T
   8   -112.5999996 -0.172845E-07  0.268E-04    0.84      47.7  T
     SCC iter.                  ...        0 min,  0.035 sec
     gradient                   ...        0 min,  0.036 sec
 * total energy  :  -110.7431149 Eh     change       -0.1849998E-02 Eh
   gradient norm :     0.0169908 Eh/α   predicted    -0.1515752E-02 ( -18.07%)
   displ. norm   :     0.6739079 α      lambda       -0.2376487E-02
   maximum displ.:     0.3603150 α      in ANC's #10, #5, #14, ...

........................................................................
.............................. CYCLE   14 ..............................
........................................................................

 iter      E             dE          RMSdq      gap      omega  full diag
   1   -112.6064493 -0.112606E+03  0.202E-01    0.77       0.0  T
   2   -112.6064715 -0.222021E-04  0.120E-01    0.79       1.0  T
   3   -112.6060505  0.421025E-03  0.814E-02    0.74       1.0  T
   4   -112.6065530 -0.502549E-03  0.988E-03    0.78       1.3  T
   5   -112.6065553 -0.230724E-05  0.513E-03    0.77       2.5  T
   6   -112.6065561 -0.764348E-06  0.194E-03    0.78       6.6  T
   7   -112.6065562 -0.959359E-07  0.864E-04    0.78      14.8  T
   8   -112.6065562 -0.353820E-07  0.304E-04    0.78      42.1  T
     SCC iter.                  ...        0 min,  0.034 sec
     gradient                   ...        0 min,  0.036 sec
 * total energy  :  -110.7449618 Eh     change       -0.1846864E-02 Eh
   gradient norm :     0.0152541 Eh/α   predicted    -0.1727918E-02 (  -6.44%)
   displ. norm   :     0.7081056 α      lambda       -0.1979475E-02
   maximum displ.:     0.3526337 α      in ANC's #10, #5, #12, ...

........................................................................
.............................. CYCLE   15 ..............................
........................................................................

 iter      E             dE          RMSdq      gap      omega  full diag
   1   -112.6069218 -0.112607E+03  0.220E-01    0.74       0.0  T
   2   -112.6069469 -0.251001E-04  0.126E-01    0.75       1.0  T
   3   -112.6067421  0.204802E-03  0.529E-02    0.71       1.0  T
   4   -112.6069724 -0.230283E-03  0.966E-03    0.74       1.3  T
   5   -112.6069746 -0.218826E-05  0.467E-03    0.74       2.7  T
   6   -112.6069750 -0.396877E-06  0.200E-03    0.74       6.4  T
   7   -112.6069752 -0.193592E-06  0.645E-04    0.74      19.8  T
   8   -112.6069752 -0.532690E-08  0.398E-04    0.74      32.2  T
     SCC iter.                  ...        0 min,  0.034 sec
     gradient                   ...        0 min,  0.036 sec
 * total energy  :  -110.7465516 Eh     change       -0.1589796E-02 Eh
   gradient norm :     0.0156351 Eh/α   predicted    -0.1486006E-02 (  -6.53%)
   displ. norm   :     0.7004640 α      lambda       -0.1756738E-02
   maximum displ.:     0.3703968 α      in ANC's #5, #10, #12, ...

........................................................................
.............................. CYCLE   16 ..............................
........................................................................

 iter      E             dE          RMSdq      gap      omega  full diag
   1   -112.6091072 -0.112609E+03  0.213E-01    0.71       0.0  T
   2   -112.6091302 -0.230127E-04  0.122E-01    0.71       1.0  T
   3   -112.6090631  0.670799E-04  0.323E-02    0.70       1.0  T
   4   -112.6091423 -0.791835E-04  0.803E-03    0.71       1.6  T
   5   -112.6091436 -0.125649E-05  0.431E-03    0.70       3.0  T
   6   -112.6091441 -0.540889E-06  0.166E-03    0.70       7.7  T
   7   -112.6091442 -0.115485E-06  0.618E-04    0.70      20.7  T
   8   -112.6091442 -0.868053E-08  0.319E-04    0.70      40.2  T
     SCC iter.                  ...        0 min,  0.034 sec
     gradient                   ...        0 min,  0.036 sec
 * total energy  :  -110.7479109 Eh     change       -0.1359333E-02 Eh
   gradient norm :     0.0132401 Eh/α   predicted    -0.1309341E-02 (  -3.68%)
   displ. norm   :     0.6827348 α      lambda       -0.1625024E-02
   maximum displ.:     0.3936422 α      in ANC's #5, #10, #8, ...

........................................................................
.............................. CYCLE   17 ..............................
........................................................................

 iter      E             dE          RMSdq      gap      omega  full diag
   1   -112.6091501 -0.112609E+03  0.231E-01    0.69       0.0  T
   2   -112.6091744 -0.242874E-04  0.134E-01    0.71       1.0  T
   3   -112.6088595  0.314825E-03  0.651E-02    0.67       1.0  T
   4   -112.6092138 -0.354253E-03  0.895E-03    0.71       1.4  T
   5   -112.6092152 -0.136241E-05  0.508E-03    0.70       2.5  T
   6   -112.6092158 -0.667852E-06  0.215E-03    0.70       6.0  T
   7   -112.6092160 -0.136012E-06  0.792E-04    0.70      16.2  T
   8   -112.6092160 -0.146056E-07  0.440E-04    0.70      29.1  T
     SCC iter.                  ...        0 min,  0.035 sec
     gradient                   ...        0 min,  0.036 sec
 * total energy  :  -110.7490242 Eh     change       -0.1113235E-02 Eh
   gradient norm :     0.0186650 Eh/α   predicted    -0.1191248E-02 (   7.01%)
   displ. norm   :     0.6119404 α      lambda       -0.1438869E-02
   maximum displ.:     0.3722185 α      in ANC's #5, #10, #8, ...

........................................................................
.............................. CYCLE   18 ..............................
........................................................................

 iter      E             dE          RMSdq      gap      omega  full diag
   1   -112.6112599 -0.112611E+03  0.192E-01    0.68       0.0  T
   2   -112.6112811 -0.212470E-04  0.113E-01    0.70       1.0  T
   3   -112.6109421  0.339057E-03  0.748E-02    0.65       1.0  T
   4   -112.6113402 -0.398123E-03  0.875E-03    0.69       1.5  T
   5   -112.6113421 -0.190903E-05  0.520E-03    0.69       2.5  T
   6   -112.6113431 -0.100757E-05  0.183E-03    0.69       7.0  T
   7   -112.6113432 -0.713706E-07  0.841E-04    0.69      15.2  T
   8   -112.6113432 -0.223595E-07  0.388E-04    0.69      33.0  T
     SCC iter.                  ...        0 min,  0.034 sec
     gradient                   ...        0 min,  0.036 sec
 * total energy  :  -110.7500893 Eh     change       -0.1065175E-02 Eh
   gradient norm :     0.0132361 Eh/α   predicted    -0.9888465E-03 (  -7.17%)
   displ. norm   :     0.6148411 α      lambda       -0.1364545E-02
   maximum displ.:     0.3681937 α      in ANC's #5, #8, #4, ...

........................................................................
.............................. CYCLE   19 ..............................
........................................................................

 iter      E             dE          RMSdq      gap      omega  full diag
   1   -112.6121667 -0.112612E+03  0.189E-01    0.69       0.0  T
   2   -112.6121880 -0.212790E-04  0.109E-01    0.70       1.0  T
   3   -112.6121204  0.675688E-04  0.366E-02    0.68       1.0  T
   4   -112.6121993 -0.789055E-04  0.687E-03    0.69       1.9  T
   5   -112.6122003 -0.105999E-05  0.354E-03    0.69       3.6  T
   6   -112.6122008 -0.468637E-06  0.151E-03    0.69       8.5  T
   7   -112.6122009 -0.774864E-07  0.593E-04    0.69      21.6  T
   8   -112.6122009 -0.988899E-08  0.302E-04    0.69      42.4  T
     SCC iter.                  ...        0 min,  0.034 sec
     gradient                   ...        0 min,  0.036 sec
 * total energy  :  -110.7510248 Eh     change       -0.9354342E-03 Eh
   gradient norm :     0.0215693 Eh/α   predicted    -0.9401923E-03 (   0.51%)
   displ. norm   :     0.6132180 α      lambda       -0.1399342E-02
   maximum displ.:     0.3745967 α      in ANC's #5, #8, #4, ...

........................................................................
.............................. CYCLE   20 ..............................
........................................................................

 iter      E             dE          RMSdq      gap      omega  full diag
   1   -112.6207908 -0.112621E+03  0.188E-01    0.71       0.0  T
   2   -112.6208088 -0.179988E-04  0.109E-01    0.73       1.0  T
   3   -112.6206084  0.200341E-03  0.572E-02    0.69       1.0  T
   4   -112.6208351 -0.226634E-03  0.789E-03    0.72       1.6  T
   5   -112.6208370 -0.191440E-05  0.436E-03    0.72       2.9  T
   6   -112.6208375 -0.496716E-06  0.173E-03    0.72       7.4  T
   7   -112.6208376 -0.872271E-07  0.732E-04    0.72      17.5  T
   8   -112.6208376 -0.755450E-08  0.432E-04    0.72      29.7  T
     SCC iter.                  ...        0 min,  0.034 sec
     gradient                   ...        0 min,  0.036 sec
 * total energy  :  -110.7519611 Eh     change       -0.9363386E-03 Eh
   gradient norm :     0.0170709 Eh/α   predicted    -0.9627788E-03 (   2.82%)
   displ. norm   :     0.6698160 α      lambda       -0.1511956E-02
   maximum displ.:     0.3909348 α      in ANC's #5, #8, #4, ...
 * RMSD in coord.:     1.1935593 α      energy gain  -0.2232617E+00 Eh

generating ANC from exact Hessian ...
Using Lindh-Hessian (1995)
 Shifting diagonal of input Hessian by    9.9051927520149140E-003
 Lowest  eigenvalues of input Hessian
    0.000000    0.000000    0.000000    0.000000    0.000000    0.000000
    0.010000    0.010063    0.010094    0.010201    0.010339    0.010378
    0.010605    0.010834    0.011076    0.011258    0.012052    0.012493
 Highest eigenvalues
    2.143183    2.155089    2.222096    2.229979    2.612357    2.637524


........................................................................
.............................. CYCLE   21 ..............................
........................................................................

 iter      E             dE          RMSdq      gap      omega  full diag
   1   -112.6046564 -0.112605E+03  0.230E-01    0.65       0.0  T
   2   -112.6046910 -0.345273E-04  0.136E-01    0.69       1.0  T
   3   -112.6042945  0.396495E-03  0.793E-02    0.63       1.0  T
   4   -112.6047435 -0.449071E-03  0.120E-02    0.68       1.1  T
   5   -112.6047504 -0.682004E-05  0.543E-03    0.68       2.4  T
   6   -112.6047510 -0.634766E-06  0.216E-03    0.68       5.9  T
   7   -112.6047512 -0.163905E-06  0.797E-04    0.68      16.1  T
   8   -112.6047512 -0.137535E-07  0.440E-04    0.68      29.1  T
     SCC iter.                  ...        0 min,  0.034 sec
     gradient                   ...        0 min,  0.036 sec
 * total energy  :  -110.7525818 Eh     change       -0.6207365E-03 Eh
   gradient norm :     0.0286300 Eh/α   predicted     0.0000000E+00 (-100.00%)
   displ. norm   :     0.2056754 α      lambda       -0.1678259E-02
   maximum displ.:     0.0797958 α      in ANC's #12, #4, #8, ...

........................................................................
.............................. CYCLE   22 ..............................
........................................................................

 iter      E             dE          RMSdq      gap      omega  full diag
   1   -112.6159969 -0.112616E+03  0.148E-01    0.71       0.0  T
   2   -112.6160122 -0.152965E-04  0.832E-02    0.70       1.0  T
   3   -112.6159918  0.204087E-04  0.217E-02    0.70       1.0  T
   4   -112.6160184 -0.265414E-04  0.547E-03    0.70       2.3  T
   5   -112.6160193 -0.896596E-06  0.272E-03    0.70       4.7  T
   6   -112.6160194 -0.980985E-07  0.101E-03    0.70      12.7  T
   7   -112.6160194 -0.553164E-07  0.368E-04    0.70      34.8  T
   8   -112.6160194 -0.155622E-08  0.207E-04    0.70      61.8  T
     SCC iter.                  ...        0 min,  0.034 sec
     gradient                   ...        0 min,  0.036 sec
 * total energy  :  -110.7536124 Eh     change       -0.1030579E-02 Eh
   gradient norm :     0.0103843 Eh/α   predicted    -0.8749588E-03 ( -15.10%)
   displ. norm   :     0.4086476 α      lambda       -0.1951759E-02
   maximum displ.:     0.1666509 α      in ANC's #8, #4, #2, ...

........................................................................
.............................. CYCLE   23 ..............................
........................................................................

 iter      E             dE          RMSdq      gap      omega  full diag
   1   -112.6288609 -0.112629E+03  0.316E-01    0.73       0.0  T
   2   -112.6289166 -0.556393E-04  0.177E-01    0.74       1.0  T
   3   -112.6288176  0.989053E-04  0.430E-02    0.72       1.0  T
   4   -112.6289447 -0.127009E-03  0.920E-03    0.74       1.4  T
   5   -112.6289468 -0.212377E-05  0.471E-03    0.73       2.7  T
   6   -112.6289472 -0.469216E-06  0.169E-03    0.73       7.6  T
   7   -112.6289474 -0.143791E-06  0.621E-04    0.73      20.6  T
   8   -112.6289474 -0.262150E-08  0.352E-04    0.73      36.4  T
     SCC iter.                  ...        0 min,  0.034 sec
     gradient                   ...        0 min,  0.037 sec
 * total energy  :  -110.7535483 Eh     change        0.6409867E-04 Eh
   gradient norm :     0.0276668 Eh/α   predicted    -0.1138878E-02 (*******%)
   displ. norm   :     0.1919619 α      lambda       -0.1822938E-02
   maximum displ.:     0.0805858 α      in ANC's #12, #4, #6, ...

........................................................................
.............................. CYCLE   24 ..............................
........................................................................

 iter      E             dE          RMSdq      gap      omega  full diag
   1   -112.6247188 -0.112625E+03  0.185E-01    0.71       0.0  T
   2   -112.6247381 -0.192481E-04  0.103E-01    0.73       1.0  T
   3   -112.6246910  0.471030E-04  0.292E-02    0.71       1.0  T
   4   -112.6247490 -0.580574E-04  0.493E-03    0.73       2.6  T
   5   -112.6247497 -0.649526E-06  0.253E-03    0.72       5.1  T
   6   -112.6247498 -0.119177E-06  0.822E-04    0.72      15.6  T
   7   -112.6247498 -0.250279E-07  0.334E-04    0.72      38.4  T
     SCC iter.                  ...        0 min,  0.030 sec
     gradient                   ...        0 min,  0.036 sec
 * total energy  :  -110.7548317 Eh     change       -0.1283417E-02 Eh
   gradient norm :     0.0155570 Eh/α   predicted    -0.9450573E-03 ( -26.36%)
   displ. norm   :     0.4305960 α      lambda       -0.1221752E-02
   maximum displ.:     0.1973330 α      in ANC's #4, #8, #12, ...

........................................................................
.............................. CYCLE   25 ..............................
........................................................................

 iter      E             dE          RMSdq      gap      omega  full diag
   1   -112.6154480 -0.112615E+03  0.198E-01    0.69       0.0  T
   2   -112.6154729 -0.249297E-04  0.114E-01    0.73       1.0  T
   3   -112.6152828  0.190157E-03  0.536E-02    0.68       1.0  T
   4   -112.6154961 -0.213348E-03  0.855E-03    0.72       1.5  T
   5   -112.6154989 -0.277823E-05  0.406E-03    0.72       3.2  T
   6   -112.6154993 -0.379142E-06  0.161E-03    0.72       7.9  T
   7   -112.6154994 -0.975792E-07  0.638E-04    0.72      20.1  T
   8   -112.6154994 -0.128414E-07  0.349E-04    0.72      36.7  T
     SCC iter.                  ...        0 min,  0.034 sec
     gradient                   ...        0 min,  0.036 sec
 * total energy  :  -110.7557194 Eh     change       -0.8876219E-03 Eh
   gradient norm :     0.0132706 Eh/α   predicted    -0.7241403E-03 ( -18.42%)
   displ. norm   :     0.5658525 α      lambda       -0.1096888E-02
   maximum displ.:     0.2612376 α      in ANC's #4, #8, #12, ...

........................................................................
.............................. CYCLE   26 ..............................
........................................................................

 iter      E             dE          RMSdq      gap      omega  full diag
   1   -112.6103973 -0.112610E+03  0.208E-01    0.68       0.0  T
   2   -112.6104244 -0.271877E-04  0.123E-01    0.73       1.0  T
   3   -112.6100584  0.366070E-03  0.747E-02    0.67       1.0  T
   4   -112.6104705 -0.412098E-03  0.106E-02    0.72       1.2  T
   5   -112.6104756 -0.516280E-05  0.473E-03    0.71       2.7  T
   6   -112.6104763 -0.650097E-06  0.203E-03    0.71       6.3  T
   7   -112.6104764 -0.151488E-06  0.832E-04    0.71      15.4  T
   8   -112.6104765 -0.219450E-07  0.417E-04    0.71      30.7  T
     SCC iter.                  ...        0 min,  0.034 sec
     gradient                   ...        0 min,  0.036 sec
 * total energy  :  -110.7566038 Eh     change       -0.8844465E-03 Eh
   gradient norm :     0.0163429 Eh/α   predicted    -0.7240520E-03 ( -18.14%)
   displ. norm   :     0.5945554 α      lambda       -0.1226489E-02
   maximum displ.:     0.2923730 α      in ANC's #4, #2, #8, ...

........................................................................
.............................. CYCLE   27 ..............................
........................................................................

 iter      E             dE          RMSdq      gap      omega  full diag
   1   -112.6100155 -0.112610E+03  0.201E-01    0.70       0.0  T
   2   -112.6100360 -0.205316E-04  0.117E-01    0.74       1.0  T
   3   -112.6097435  0.292454E-03  0.660E-02    0.68       1.0  T
   4   -112.6100692 -0.325604E-03  0.895E-03    0.72       1.4  T
   5   -112.6100722 -0.308679E-05  0.441E-03    0.72       2.9  T
   6   -112.6100729 -0.702426E-06  0.188E-03    0.72       6.8  T
   7   -112.6100731 -0.139215E-06  0.726E-04    0.72      17.6  T
   8   -112.6100731 -0.147135E-07  0.367E-04    0.72      34.9  T
     SCC iter.                  ...        0 min,  0.034 sec
     gradient                   ...        0 min,  0.036 sec
 * total energy  :  -110.7576524 Eh     change       -0.1048542E-02 Eh
   gradient norm :     0.0166087 Eh/α   predicted    -0.8300299E-03 ( -20.84%)
   displ. norm   :     0.6096614 α      lambda       -0.1643295E-02
   maximum displ.:     0.3269207 α      in ANC's #4, #2, #12, ...

........................................................................
.............................. CYCLE   28 ..............................
........................................................................

 iter      E             dE          RMSdq      gap      omega  full diag
   1   -112.6182849 -0.112618E+03  0.189E-01    0.73       0.0  T
   2   -112.6183017 -0.168106E-04  0.108E-01    0.75       1.0  T
   3   -112.6182037  0.979647E-04  0.398E-02    0.72       1.0  T
   4   -112.6183137 -0.109962E-03  0.730E-03    0.74       1.8  T
   5   -112.6183153 -0.158721E-05  0.384E-03    0.74       3.3  T
   6   -112.6183158 -0.473415E-06  0.158E-03    0.74       8.1  T
   7   -112.6183159 -0.137971E-06  0.510E-04    0.74      25.1  T
   8   -112.6183159 -0.287852E-08  0.303E-04    0.74      42.2  T
     SCC iter.                  ...        0 min,  0.034 sec
     gradient                   ...        0 min,  0.036 sec
 * total energy  :  -110.7589588 Eh     change       -0.1306473E-02 Eh
   gradient norm :     0.0100092 Eh/α   predicted    -0.1127044E-02 ( -13.73%)
   displ. norm   :     0.7939668 α      lambda       -0.1458506E-02
   maximum displ.:     0.4373887 α      in ANC's #4, #2, #12, ...

........................................................................
.............................. CYCLE   29 ..............................
........................................................................

 iter      E             dE          RMSdq      gap      omega  full diag
   1   -112.6162035 -0.112616E+03  0.232E-01    0.74       0.0  T
   2   -112.6162245 -0.210027E-04  0.137E-01    0.78       1.0  T
   3   -112.6156764  0.548099E-03  0.895E-02    0.71       1.0  T
   4   -112.6162920 -0.615631E-03  0.107E-02    0.77       1.2  T
   5   -112.6162957 -0.371667E-05  0.558E-03    0.76       2.3  T
   6   -112.6162969 -0.120022E-05  0.213E-03    0.76       6.0  T
   7   -112.6162971 -0.191970E-06  0.808E-04    0.76      15.8  T
   8   -112.6162971 -0.138145E-07  0.457E-04    0.76      28.0  T
     SCC iter.                  ...        0 min,  0.034 sec
     gradient                   ...        0 min,  0.036 sec
 * total energy  :  -110.7602696 Eh     change       -0.1310797E-02 Eh
   gradient norm :     0.0125190 Eh/α   predicted    -0.1188964E-02 (  -9.29%)
   displ. norm   :     0.7696222 α      lambda       -0.1698132E-02
   maximum displ.:     0.4545585 α      in ANC's #4, #2, #10, ...

........................................................................
.............................. CYCLE   30 ..............................
........................................................................

 iter      E             dE          RMSdq      gap      omega  full diag
   1   -112.6250291 -0.112625E+03  0.200E-01    0.78       0.0  T
   2   -112.6250433 -0.142305E-04  0.117E-01    0.81       1.0  T
   3   -112.6247170  0.326317E-03  0.688E-02    0.76       1.0  T
   4   -112.6250798 -0.362797E-03  0.836E-03    0.80       1.5  T
   5   -112.6250812 -0.145333E-05  0.478E-03    0.80       2.7  T
   6   -112.6250822 -0.941676E-06  0.169E-03    0.80       7.6  T
   7   -112.6250823 -0.129692E-06  0.663E-04    0.80      19.3  T
   8   -112.6250823 -0.468009E-08  0.403E-04    0.80      31.7  T
     SCC iter.                  ...        0 min,  0.034 sec
     gradient                   ...        0 min,  0.037 sec
 * total energy  :  -110.7617437 Eh     change       -0.1474098E-02 Eh
   gradient norm :     0.0104190 Eh/α   predicted    -0.1351982E-02 (  -8.28%)
   displ. norm   :     0.8703992 α      lambda       -0.1626113E-02
   maximum displ.:     0.5055993 α      in ANC's #4, #10, #2, ...

........................................................................
.............................. CYCLE   31 ..............................
........................................................................

 iter      E             dE          RMSdq      gap      omega  full diag
   1   -112.6198574 -0.112620E+03  0.236E-01    0.79       0.0  T
   2   -112.6198717 -0.142531E-04  0.141E-01    0.84       1.0  T
   3   -112.6191539  0.717792E-03  0.103E-01    0.76       1.0  T
   4   -112.6199725 -0.818619E-03  0.106E-02    0.82       1.2  T
   5   -112.6199762 -0.365348E-05  0.599E-03    0.82       2.1  T
   6   -112.6199776 -0.144504E-05  0.224E-03    0.82       5.7  T
   7   -112.6199778 -0.201765E-06  0.839E-04    0.82      15.3  T
   8   -112.6199778 -0.126714E-07  0.487E-04    0.82      26.3  T
     SCC iter.                  ...        0 min,  0.034 sec
     gradient                   ...        0 min,  0.036 sec
 * total energy  :  -110.7631997 Eh     change       -0.1456028E-02 Eh
   gradient norm :     0.0121118 Eh/α   predicted    -0.1429024E-02 (  -1.85%)
   displ. norm   :     0.7779236 α      lambda       -0.1786719E-02
   maximum displ.:     0.4649509 α      in ANC's #4, #10, #2, ...

........................................................................
.............................. CYCLE   32 ..............................
........................................................................

 iter      E             dE          RMSdq      gap      omega  full diag
   1   -112.6268559 -0.112627E+03  0.206E-01    0.82       0.0  T
   2   -112.6268755 -0.196198E-04  0.121E-01    0.85       1.0  T
   3   -112.6264502  0.425294E-03  0.788E-02    0.79       1.0  T
   4   -112.6269278 -0.477597E-03  0.866E-03    0.84       1.5  T
   5   -112.6269297 -0.191498E-05  0.534E-03    0.84       2.4  T
   6   -112.6269310 -0.125610E-05  0.206E-03    0.84       6.2  T
   7   -112.6269311 -0.141504E-06  0.814E-04    0.84      15.7  T
   8   -112.6269311 -0.159185E-07  0.417E-04    0.84      30.7  T
     SCC iter.                  ...        0 min,  0.034 sec
     gradient                   ...        0 min,  0.036 sec
 * total energy  :  -110.7645958 Eh     change       -0.1396030E-02 Eh
   gradient norm :     0.0118841 Eh/α   predicted    -0.1433990E-02 (   2.72%)
   displ. norm   :     0.8643433 α      lambda       -0.1567022E-02
   maximum displ.:     0.5251265 α      in ANC's #4, #10, #2, ...

........................................................................
.............................. CYCLE   33 ..............................
........................................................................

 iter      E             dE          RMSdq      gap      omega  full diag
   1   -112.6158195 -0.112616E+03  0.225E-01    0.81       0.0  T
   2   -112.6158221 -0.268418E-05  0.137E-01    0.86       1.0  T
   3   -112.6150635  0.758593E-03  0.110E-01    0.78       1.0  T
   4   -112.6159711 -0.907508E-03  0.109E-02    0.84       1.2  T
   5   -112.6159744 -0.332008E-05  0.628E-03    0.84       2.0  T
   6   -112.6159759 -0.157067E-05  0.226E-03    0.84       5.7  T
   7   -112.6159761 -0.179139E-06  0.948E-04    0.84      13.5  T
   8   -112.6159761 -0.214439E-07  0.497E-04    0.84      25.8  T
     SCC iter.                  ...        0 min,  0.035 sec
     gradient                   ...        0 min,  0.036 sec
 * total energy  :  -110.7657818 Eh     change       -0.1185996E-02 Eh
   gradient norm :     0.0168002 Eh/α   predicted    -0.1368865E-02 (  15.42%)
   displ. norm   :     0.6628949 α      lambda       -0.1391603E-02
   maximum displ.:     0.4182589 α      in ANC's #4, #10, #2, ...

........................................................................
.............................. CYCLE   34 ..............................
........................................................................

 iter      E             dE          RMSdq      gap      omega  full diag
   1   -112.6178925 -0.112618E+03  0.168E-01    0.82       0.0  T
   2   -112.6178868  0.574996E-05  0.103E-01    0.86       1.0  T
   3   -112.6174645  0.422251E-03  0.846E-02    0.79       1.0  T
   4   -112.6179958 -0.531279E-03  0.797E-03    0.84       1.6  T
   5   -112.6179965 -0.714234E-06  0.505E-03    0.83       2.5  T
   6   -112.6179977 -0.120408E-05  0.169E-03    0.84       7.6  T
   7   -112.6179978 -0.678048E-07  0.829E-04    0.84      15.4  T
   8   -112.6179978 -0.217816E-07  0.359E-04    0.84      35.7  T
     SCC iter.                  ...        0 min,  0.034 sec
     gradient                   ...        0 min,  0.037 sec
 * total energy  :  -110.7668913 Eh     change       -0.1109502E-02 Eh
   gradient norm :     0.0155057 Eh/α   predicted    -0.1001558E-02 (  -9.73%)
   displ. norm   :     0.6313194 α      lambda       -0.1602571E-02
   maximum displ.:     0.3885968 α      in ANC's #4, #10, #2, ...

........................................................................
.............................. CYCLE   35 ..............................
........................................................................

 iter      E             dE          RMSdq      gap      omega  full diag
   1   -112.6293531 -0.112629E+03  0.167E-01    0.81       0.0  T
   2   -112.6293899 -0.368300E-04  0.982E-02    0.84       1.0  T
   3   -112.6291674  0.222534E-03  0.590E-02    0.80       1.0  T
   4   -112.6294226 -0.255238E-03  0.105E-02    0.83       1.2  T
   5   -112.6294291 -0.647804E-05  0.539E-03    0.82       2.4  T
   6   -112.6294303 -0.119009E-05  0.203E-03    0.83       6.3  T
   7   -112.6294304 -0.806396E-07  0.938E-04    0.83      13.6  T
   8   -112.6294304 -0.185280E-07  0.373E-04    0.83      34.4  T
     SCC iter.                  ...        0 min,  0.034 sec
     gradient                   ...        0 min,  0.037 sec
 * total energy  :  -110.7678135 Eh     change       -0.9222597E-03 Eh
   gradient norm :     0.0169718 Eh/α   predicted    -0.1120659E-02 (  21.51%)
   displ. norm   :     0.7380536 α      lambda       -0.1470038E-02
   maximum displ.:     0.4529742 α      in ANC's #4, #10, #2, ...

........................................................................
.............................. CYCLE   36 ..............................
........................................................................

 iter      E             dE          RMSdq      gap      omega  full diag
   1   -112.6218828 -0.112622E+03  0.187E-01    0.80       0.0  T
   2   -112.6218914 -0.863052E-05  0.114E-01    0.84       1.0  T
   3   -112.6213969  0.494489E-03  0.888E-02    0.77       1.0  T
   4   -112.6219886 -0.591701E-03  0.966E-03    0.82       1.3  T
   5   -112.6219925 -0.390678E-05  0.496E-03    0.82       2.6  T
   6   -112.6219932 -0.698671E-06  0.223E-03    0.82       5.8  T
   7   -112.6219934 -0.203101E-06  0.716E-04    0.82      17.9  T
   8   -112.6219934 -0.910214E-08  0.412E-04    0.82      31.1  T
     SCC iter.                  ...        0 min,  0.034 sec
     gradient                   ...        0 min,  0.037 sec
 * total energy  :  -110.7688657 Eh     change       -0.1052123E-02 Eh
   gradient norm :     0.0155964 Eh/α   predicted    -0.1135401E-02 (   7.92%)
   displ. norm   :     0.6648174 α      lambda       -0.1176904E-02
   maximum displ.:     0.4148625 α      in ANC's #4, #10, #2, ...

........................................................................
.............................. CYCLE   37 ..............................
........................................................................

 iter      E             dE          RMSdq      gap      omega  full diag
   1   -112.6252953 -0.112625E+03  0.162E-01    0.82       0.0  T
   2   -112.6253056 -0.102555E-04  0.976E-02    0.84       1.0  T
   3   -112.6249637  0.341915E-03  0.757E-02    0.79       1.0  T
   4   -112.6253761 -0.412386E-03  0.910E-03    0.83       1.4  T
   5   -112.6253802 -0.418357E-05  0.432E-03    0.82       3.0  T
   6   -112.6253808 -0.575701E-06  0.180E-03    0.82       7.1  T
   7   -112.6253809 -0.118279E-06  0.692E-04    0.82      18.5  T
   8   -112.6253809 -0.146932E-07  0.342E-04    0.82      37.4  T
     SCC iter.                  ...        0 min,  0.034 sec
     gradient                   ...        0 min,  0.037 sec
 * total energy  :  -110.7696217 Eh     change       -0.7560254E-03 Eh
   gradient norm :     0.0196987 Eh/α   predicted    -0.8485387E-03 (  12.24%)
   displ. norm   :     0.5588276 α      lambda       -0.1288223E-02
   maximum displ.:     0.3350534 α      in ANC's #4, #10, #2, ...

........................................................................
.............................. CYCLE   38 ..............................
........................................................................

 iter      E             dE          RMSdq      gap      omega  full diag
   1   -112.6355343 -0.112636E+03  0.133E-01    0.83       0.0  T
   2   -112.6355446 -0.102814E-04  0.767E-02    0.83       1.0  T
   3   -112.6354404  0.104175E-03  0.406E-02    0.81       1.0  T
   4   -112.6355567 -0.116292E-03  0.584E-03    0.83       2.2  T
   5   -112.6355577 -0.102603E-05  0.319E-03    0.83       4.0  T
   6   -112.6355580 -0.278455E-06  0.150E-03    0.83       8.5  T
   7   -112.6355581 -0.878288E-07  0.552E-04    0.83      23.2  T
   8   -112.6355581 -0.112056E-07  0.220E-04    0.83      58.3  T
     SCC iter.                  ...        0 min,  0.034 sec
     gradient                   ...        0 min,  0.037 sec
 * total energy  :  -110.7701581 Eh     change       -0.5364580E-03 Eh
   gradient norm :     0.0277003 Eh/α   predicted    -0.8452632E-03 (  57.56%)
   displ. norm   :     0.5251875 α      lambda       -0.1657793E-02
   maximum displ.:     0.3129139 α      in ANC's #4, #10, #2, ...

........................................................................
.............................. CYCLE   39 ..............................
........................................................................

 iter      E             dE          RMSdq      gap      omega  full diag
   1   -112.6238013 -0.112624E+03  0.156E-01    0.79       0.0  T
   2   -112.6238393 -0.380513E-04  0.906E-02    0.80       1.0  T
   3   -112.6237678  0.715682E-04  0.365E-02    0.80       1.0  T
   4   -112.6238535 -0.856816E-04  0.874E-03    0.80       1.5  T
   5   -112.6238567 -0.321489E-05  0.370E-03    0.80       3.5  T
   6   -112.6238569 -0.231947E-06  0.187E-03    0.80       6.8  T
   7   -112.6238571 -0.174350E-06  0.748E-04    0.80      17.1  T
   8   -112.6238571 -0.283303E-07  0.285E-04    0.80      45.0  T
     SCC iter.                  ...        0 min,  0.034 sec
     gradient                   ...        0 min,  0.037 sec
 * total energy  :  -110.7710545 Eh     change       -0.8963371E-03 Eh
   gradient norm :     0.0225533 Eh/α   predicted    -0.1057525E-02 (  17.98%)
   displ. norm   :     0.5821449 α      lambda       -0.1183420E-02
   maximum displ.:     0.3526249 α      in ANC's #4, #10, #2, ...

........................................................................
.............................. CYCLE   40 ..............................
........................................................................

 iter      E             dE          RMSdq      gap      omega  full diag
   1   -112.6257523 -0.112626E+03  0.157E-01    0.80       0.0  T
   2   -112.6257581 -0.574298E-05  0.934E-02    0.82       1.0  T
   3   -112.6254202  0.337892E-03  0.697E-02    0.77       1.0  T
   4   -112.6258088 -0.388597E-03  0.692E-03    0.81       1.9  T
   5   -112.6258099 -0.114659E-05  0.413E-03    0.80       3.1  T
   6   -112.6258104 -0.440196E-06  0.190E-03    0.81       6.7  T
   7   -112.6258105 -0.141439E-06  0.610E-04    0.81      21.0  T
   8   -112.6258105 -0.645356E-08  0.315E-04    0.81      40.7  T
     SCC iter.                  ...        0 min,  0.034 sec
     gradient                   ...        0 min,  0.037 sec
 * total energy  :  -110.7716128 Eh     change       -0.5583130E-03 Eh
   gradient norm :     0.0213395 Eh/α   predicted    -0.7922377E-03 (  41.90%)
   displ. norm   :     0.5617905 α      lambda       -0.1082740E-02
   maximum displ.:     0.3293433 α      in ANC's #4, #10, #2, ...

........................................................................
.............................. CYCLE   41 ..............................
........................................................................

 iter      E             dE          RMSdq      gap      omega  full diag
   1   -112.6277875 -0.112628E+03  0.138E-01    0.80       0.0  T
   2   -112.6277959 -0.840096E-05  0.822E-02    0.82       1.0  T
   3   -112.6275549  0.240947E-03  0.619E-02    0.78       1.0  T
   4   -112.6278409 -0.285964E-03  0.808E-03    0.81       1.6  T
   5   -112.6278437 -0.282771E-05  0.366E-03    0.80       3.5  T
   6   -112.6278440 -0.253718E-06  0.185E-03    0.81       6.9  T
   7   -112.6278441 -0.167658E-06  0.598E-04    0.81      21.4  T
   8   -112.6278442 -0.128129E-07  0.283E-04    0.81      45.3  T
     SCC iter.                  ...        0 min,  0.034 sec
     gradient                   ...        0 min,  0.037 sec
 * total energy  :  -110.7723137 Eh     change       -0.7008952E-03 Eh
   gradient norm :     0.0144156 Eh/α   predicted    -0.7122317E-03 (   1.62%)
   displ. norm   :     0.4818949 α      lambda       -0.1078788E-02
   maximum displ.:     0.2509230 α      in ANC's #4, #10, #2, ...

........................................................................
.............................. CYCLE   42 ..............................
........................................................................

 iter      E             dE          RMSdq      gap      omega  full diag
   1   -112.6446400 -0.112645E+03  0.135E-01    0.80       0.0  T
   2   -112.6446853 -0.452606E-04  0.785E-02    0.80       1.0  T
   3   -112.6446435  0.418269E-04  0.355E-02    0.80       1.0  T
   4   -112.6446964 -0.528990E-04  0.105E-02    0.80       1.2  T
   5   -112.6447015 -0.508038E-05  0.368E-03    0.80       3.5  T
   6   -112.6447016 -0.140121E-06  0.190E-03    0.80       6.7  T
   7   -112.6447018 -0.179930E-06  0.822E-04    0.80      15.6  T
   8   -112.6447018 -0.337366E-07  0.358E-04    0.80      35.8  T
     SCC iter.                  ...        0 min,  0.034 sec
     gradient                   ...        0 min,  0.037 sec
 * total energy  :  -110.7726691 Eh     change       -0.3553870E-03 Eh
   gradient norm :     0.0229777 Eh/α   predicted    -0.6646572E-03 (  87.02%)
   displ. norm   :     0.5998065 α      lambda       -0.1209022E-02
   maximum displ.:     0.3586586 α      in ANC's #4, #10, #2, ...
 * RMSD in coord.:     1.5566150 α      energy gain  -0.2070797E-01 Eh

generating ANC from exact Hessian ...
Using Lindh-Hessian (1995)
 Shifting diagonal of input Hessian by    9.9187412864197109E-003
 Lowest  eigenvalues of input Hessian
    0.000000    0.000000    0.000000    0.000000    0.000000    0.000000
    0.010000    0.010079    0.010149    0.010261    0.010469    0.010709
    0.010854    0.011002    0.011114    0.011752    0.012013    0.012831
 Highest eigenvalues
    2.158831    2.180102    2.224955    2.237468    2.604691    2.615985


........................................................................
.............................. CYCLE   43 ..............................
........................................................................

 iter      E             dE          RMSdq      gap      omega  full diag
   1   -112.6215051 -0.112622E+03  0.172E-01    0.76       0.0  T
   2   -112.6215072 -0.210972E-05  0.104E-01    0.80       1.0  T
   3   -112.6210289  0.478295E-03  0.842E-02    0.74       1.0  T
   4   -112.6216032 -0.574345E-03  0.890E-03    0.78       1.4  T
   5   -112.6216052 -0.198208E-05  0.465E-03    0.78       2.8  T
   6   -112.6216056 -0.433560E-06  0.214E-03    0.78       6.0  T
   7   -112.6216058 -0.196633E-06  0.713E-04    0.78      18.0  T
   8   -112.6216058 -0.746171E-08  0.401E-04    0.78      31.9  T
     SCC iter.                  ...        0 min,  0.034 sec
     gradient                   ...        0 min,  0.037 sec
 * total energy  :  -110.7732738 Eh     change       -0.6047361E-03 Eh
   gradient norm :     0.0205229 Eh/α   predicted     0.0000000E+00 (-100.00%)
   displ. norm   :     0.1128120 α      lambda       -0.6542561E-03
   maximum displ.:     0.0688416 α      in ANC's #12, #4, #40, ...

........................................................................
.............................. CYCLE   44 ..............................
........................................................................

 iter      E             dE          RMSdq      gap      omega  full diag
   1   -112.6338778 -0.112634E+03  0.593E-02    0.79       0.0  T
   2   -112.6338810 -0.319919E-05  0.349E-02    0.79       1.0  T
   3   -112.6338670  0.139487E-04  0.171E-02    0.79       1.0  T
   4   -112.6338831 -0.160861E-04  0.310E-03    0.79       4.1  T
   5   -112.6338835 -0.353155E-06  0.131E-03    0.79       9.8  T
   6   -112.6338835 -0.254871E-07  0.555E-04    0.79      23.1  T
   7   -112.6338835 -0.102637E-07  0.183E-04    0.79      69.9  T
     SCC iter.                  ...        0 min,  0.030 sec
     gradient                   ...        0 min,  0.037 sec
 * total energy  :  -110.7736750 Eh     change       -0.4011638E-03 Eh
   gradient norm :     0.0061161 Eh/α   predicted    -0.3313117E-03 ( -17.41%)
   displ. norm   :     0.1442689 α      lambda       -0.2294092E-03
   maximum displ.:     0.0867426 α      in ANC's #12, #4, #8, ...

........................................................................
.............................. CYCLE   45 ..............................
........................................................................

 iter      E             dE          RMSdq      gap      omega  full diag
   1   -112.6370177 -0.112637E+03  0.632E-02    0.79       0.0  T
   2   -112.6370195 -0.187018E-05  0.365E-02    0.79       1.0  T
   3   -112.6369885  0.309825E-04  0.209E-02    0.78       1.0  T
   4   -112.6370231 -0.345395E-04  0.260E-03    0.79       4.9  T
   5   -112.6370233 -0.193223E-06  0.154E-03    0.79       8.3  T
   6   -112.6370234 -0.878167E-07  0.490E-04    0.79      26.1  T
   7   -112.6370234 -0.561268E-08  0.236E-04    0.79      54.3  T
     SCC iter.                  ...        0 min,  0.030 sec
     gradient                   ...        0 min,  0.037 sec
 * total energy  :  -110.7738228 Eh     change       -0.1477991E-03 Eh
   gradient norm :     0.0054583 Eh/α   predicted    -0.1170937E-03 ( -20.78%)
   displ. norm   :     0.3285535 α      lambda       -0.4023073E-03
   maximum displ.:     0.2086723 α      in ANC's #12, #4, #9, ...

........................................................................
.............................. CYCLE   46 ..............................
........................................................................

 iter      E             dE          RMSdq      gap      omega  full diag
   1   -112.6378826 -0.112638E+03  0.148E-01    0.78       0.0  T
   2   -112.6378903 -0.773350E-05  0.857E-02    0.80       1.0  T
   3   -112.6376688  0.221523E-03  0.556E-02    0.76       1.0  T
   4   -112.6379182 -0.249410E-03  0.592E-03    0.79       2.2  T
   5   -112.6379188 -0.604711E-06  0.350E-03    0.79       3.7  T
   6   -112.6379192 -0.385464E-06  0.131E-03    0.79       9.8  T
   7   -112.6379193 -0.690287E-07  0.542E-04    0.79      23.6  T
   8   -112.6379193 -0.860422E-08  0.242E-04    0.79      52.9  T
     SCC iter.                  ...        0 min,  0.034 sec
     gradient                   ...        0 min,  0.037 sec
 * total energy  :  -110.7740005 Eh     change       -0.1777421E-03 Eh
   gradient norm :     0.0111157 Eh/α   predicted    -0.2228838E-03 (  25.40%)
   displ. norm   :     0.2342839 α      lambda       -0.3172747E-03
   maximum displ.:     0.1269798 α      in ANC's #12, #4, #15, ...

........................................................................
.............................. CYCLE   47 ..............................
........................................................................

 iter      E             dE          RMSdq      gap      omega  full diag
   1   -112.6355103 -0.112636E+03  0.855E-02    0.77       0.0  T
   2   -112.6355121 -0.181556E-05  0.516E-02    0.79       1.0  T
   3   -112.6354086  0.103549E-03  0.410E-02    0.76       1.0  T
   4   -112.6355388 -0.130221E-03  0.520E-03    0.78       2.5  T
   5   -112.6355396 -0.791269E-06  0.248E-03    0.78       5.2  T
   6   -112.6355397 -0.130372E-06  0.110E-03    0.78      11.7  T
   7   -112.6355398 -0.510416E-07  0.362E-04    0.78      35.3  T
   8   -112.6355398 -0.275304E-08  0.197E-04    0.78      65.0  T
     SCC iter.                  ...        0 min,  0.034 sec
     gradient                   ...        0 min,  0.037 sec
 * total energy  :  -110.7742602 Eh     change       -0.2596589E-03 Eh
   gradient norm :     0.0091969 Eh/α   predicted    -0.1673474E-03 ( -35.55%)
   displ. norm   :     0.4730256 α      lambda       -0.5529803E-03
   maximum displ.:     0.2426345 α      in ANC's #4, #12, #15, ...

........................................................................
.............................. CYCLE   48 ..............................
........................................................................

 iter      E             dE          RMSdq      gap      omega  full diag
   1   -112.6274771 -0.112627E+03  0.159E-01    0.74       0.0  T
   2   -112.6274937 -0.166202E-04  0.102E-01    0.78       1.0  T
   3   -112.6272808  0.212895E-03  0.768E-02    0.73       1.0  T
   4   -112.6276738 -0.392998E-03  0.140E-02    0.76       1.0  T
   5   -112.6276808 -0.702495E-05  0.588E-03    0.75       2.2  T
   6   -112.6276815 -0.688275E-06  0.279E-03    0.76       4.6  T
   7   -112.6276819 -0.330340E-06  0.896E-04    0.76      14.3  T
   8   -112.6276819 -0.196834E-07  0.499E-04    0.76      25.7  T
     SCC iter.                  ...        0 min,  0.034 sec
     gradient                   ...        0 min,  0.037 sec
 * total energy  :  -110.7746360 Eh     change       -0.3758300E-03 Eh
   gradient norm :     0.0079739 Eh/α   predicted    -0.3383598E-03 (  -9.97%)
   displ. norm   :     0.4840775 α      lambda       -0.4744548E-03
   maximum displ.:     0.2478778 α      in ANC's #4, #12, #15, ...

........................................................................
.............................. CYCLE   49 ..............................
........................................................................

 iter      E             dE          RMSdq      gap      omega  full diag
   1   -112.6223554 -0.112622E+03  0.176E-01    0.69       0.0  T
   2   -112.6223897 -0.343004E-04  0.118E-01    0.75       1.0  T
   3   -112.6223990 -0.925186E-05  0.796E-02    0.69       1.0  T
   4   -112.6227479 -0.348973E-03  0.184E-02    0.72       1.0  T
   5   -112.6227600 -0.120726E-04  0.747E-03    0.72       1.7  T
   6   -112.6227611 -0.113005E-05  0.375E-03    0.72       3.4  T
   7   -112.6227617 -0.554245E-06  0.120E-03    0.72      10.7  T
   8   -112.6227617 -0.324842E-07  0.690E-04    0.72      18.5  T
   9   -112.6227617 -0.100548E-07  0.258E-04    0.72      49.6  T
     SCC iter.                  ...        0 min,  0.038 sec
     gradient                   ...        0 min,  0.037 sec
 * total energy  :  -110.7750235 Eh     change       -0.3874942E-03 Eh
   gradient norm :     0.0131256 Eh/α   predicted    -0.2928189E-03 ( -24.43%)
   displ. norm   :     0.6739455 α      lambda       -0.9410026E-03
   maximum displ.:     0.3330494 α      in ANC's #4, #15, #12, ...

........................................................................
.............................. CYCLE   50 ..............................
........................................................................

 iter      E             dE          RMSdq      gap      omega  full diag
   1   -112.6164866 -0.112616E+03  0.276E-01    0.57       0.0  T
   2   -112.6167848 -0.298228E-03  0.211E-01    0.67       1.0  T
   3   -112.6180877 -0.130286E-02  0.108E-01    0.60       1.0  T
   4   -112.6184157 -0.327995E-03  0.364E-02    0.62       1.0  T
   5   -112.6184609 -0.452381E-04  0.140E-02    0.62       1.0  T
   6   -112.6184648 -0.386545E-05  0.765E-03    0.62       1.7  T
   7   -112.6184668 -0.196579E-05  0.255E-03    0.62       5.0  T
   8   -112.6184669 -0.128640E-06  0.155E-03    0.62       8.2  T
   9   -112.6184670 -0.564979E-07  0.552E-04    0.62      23.2  T
  10   -112.6184670 -0.637750E-08  0.214E-04    0.62      59.9  T
     SCC iter.                  ...        0 min,  0.043 sec
     gradient                   ...        0 min,  0.037 sec
 * total energy  :  -110.7761418 Eh     change       -0.1118289E-02 Eh
   gradient norm :     0.0272029 Eh/α   predicted    -0.6842141E-03 ( -38.82%)
   displ. norm   :     0.6222485 α      lambda       -0.1769700E-02
   maximum displ.:     0.2779401 α      in ANC's #4, #15, #12, ...

........................................................................
.............................. CYCLE   51 ..............................
........................................................................

 iter      E             dE          RMSdq      gap      omega  full diag
   1   -112.6102756 -0.112610E+03  0.280E-01    0.47       0.0  T
   2   -112.6111284 -0.852785E-03  0.222E-01    0.53       1.0  T
   3   -112.6125526 -0.142417E-02  0.103E-01    0.49       1.0  T
   4   -112.6126651 -0.112583E-03  0.441E-02    0.50       1.0  T
   5   -112.6127367 -0.715287E-04  0.157E-02    0.49       1.0  T
   6   -112.6127436 -0.692216E-05  0.934E-03    0.50       1.4  T
   7   -112.6127457 -0.212401E-05  0.339E-03    0.50       3.8  T
   8   -112.6127461 -0.339256E-06  0.188E-03    0.50       6.8  T
   9   -112.6127461 -0.673545E-07  0.662E-04    0.50      19.3  T
  10   -112.6127461 -0.102210E-07  0.272E-04    0.50      47.1  T
     SCC iter.                  ...        0 min,  0.043 sec
     gradient                   ...        0 min,  0.037 sec
 * total energy  :  -110.7791590 Eh     change       -0.3017245E-02 Eh
   gradient norm :     0.0504392 Eh/α   predicted    -0.1227467E-02 ( -59.32%)
   displ. norm   :     0.5745300 α      lambda       -0.7259015E-02
   maximum displ.:     0.2293493 α      in ANC's #15, #20, #4, ...

........................................................................
.............................. CYCLE   52 ..............................
........................................................................

 iter      E             dE          RMSdq      gap      omega  full diag
   1   -112.6132236 -0.112613E+03  0.328E-01    0.29       0.0  T
   2   -112.6150195 -0.179589E-02  0.268E-01    0.35       1.0  T
   3   -112.6164044 -0.138493E-02  0.128E-01    0.30       1.0  T
   4   -112.6163321  0.723342E-04  0.724E-02    0.34       1.0  T
   5   -112.6165566 -0.224517E-03  0.216E-02    0.31       1.0  T
   6   -112.6165688 -0.122282E-04  0.147E-02    0.32       1.0  T
   7   -112.6165755 -0.663483E-05  0.646E-03    0.31       2.0  T
   8   -112.6165769 -0.148746E-05  0.282E-03    0.31       4.5  T
   9   -112.6165770 -0.147948E-07  0.176E-03    0.32       7.3  T
  10   -112.6165771 -0.159190E-06  0.570E-04    0.31      22.5  T
  11   -112.6165771 -0.976661E-08  0.309E-04    0.31      41.4  T
     SCC iter.                  ...        0 min,  0.047 sec
     gradient                   ...        0 min,  0.037 sec
 * total energy  :  -110.7885259 Eh     change       -0.9366859E-02 Eh
   gradient norm :     0.0786307 Eh/α   predicted    -0.4827587E-02 ( -48.46%)
   displ. norm   :     0.4666307 α      lambda       -0.1114992E-01
   maximum displ.:     0.1861856 α      in ANC's #15, #20, #11, ...

........................................................................
.............................. CYCLE   53 ..............................
........................................................................

 iter      E             dE          RMSdq      gap      omega  full diag
   1   -112.6219794 -0.112622E+03  0.251E-01    0.31       0.0  T
   2   -112.6226387 -0.659253E-03  0.159E-01    0.32       1.0  T
   3   -112.6226507 -0.120241E-04  0.961E-02    0.30       1.0  T
   4   -112.6227375 -0.867384E-04  0.593E-02    0.31       1.0  T
   5   -112.6229494 -0.211982E-03  0.280E-02    0.31       1.0  T
   6   -112.6229789 -0.294174E-04  0.106E-02    0.30       1.2  T
   7   -112.6229811 -0.228218E-05  0.458E-03    0.31       2.8  T
   8   -112.6229816 -0.499279E-06  0.185E-03    0.31       6.9  T
   9   -112.6229817 -0.193687E-07  0.101E-03    0.31      12.7  T
  10   -112.6229817 -0.362067E-07  0.370E-04    0.31      34.6  T
  11   -112.6229817 -0.327853E-08  0.182E-04    0.31      70.4  T
     SCC iter.                  ...        0 min,  0.047 sec
     gradient                   ...        0 min,  0.037 sec
 * total energy  :  -110.7921670 Eh     change       -0.3641130E-02 Eh
   gradient norm :     0.0727126 Eh/α   predicted    -0.6788923E-02 (  86.45%)
   displ. norm   :     0.5269837 α      lambda       -0.1559030E-01
   maximum displ.:     0.2326670 α      in ANC's #4, #12, #15, ...

........................................................................
.............................. CYCLE   54 ..............................
........................................................................

 iter      E             dE          RMSdq      gap      omega  full diag
   1   -112.6408974 -0.112641E+03  0.285E-01    0.45       0.0  T
   2   -112.6414109 -0.513551E-03  0.204E-01    0.33       1.0  T
   3   -112.6417014 -0.290533E-03  0.124E-01    0.38       1.0  T
   4   -112.6420180 -0.316508E-03  0.574E-02    0.36       1.0  T
   5   -112.6421644 -0.146430E-03  0.245E-02    0.35       1.0  T
   6   -112.6422047 -0.403081E-04  0.793E-03    0.36       1.6  T
   7   -112.6422059 -0.122277E-05  0.402E-03    0.36       3.2  T
   8   -112.6422062 -0.318847E-06  0.161E-03    0.36       8.0  T
   9   -112.6422063 -0.232153E-07  0.101E-03    0.36      12.6  T
  10   -112.6422063 -0.246882E-07  0.360E-04    0.36      35.6  T
  11   -112.6422063 -0.336851E-08  0.191E-04    0.36      66.9  T
     SCC iter.                  ...        0 min,  0.047 sec
     gradient                   ...        0 min,  0.037 sec
 * total energy  :  -110.7988428 Eh     change       -0.6675787E-02 Eh
   gradient norm :     0.0422608 Eh/α   predicted    -0.9959961E-02 (  49.20%)
   displ. norm   :     0.4884967 α      lambda       -0.4666789E-02
   maximum displ.:     0.3099230 α      in ANC's #12, #4, #9, ...

........................................................................
.............................. CYCLE   55 ..............................
........................................................................

 iter      E             dE          RMSdq      gap      omega  full diag
   1   -112.6525771 -0.112653E+03  0.206E-01    0.30       0.0  T
   2   -112.6525343  0.428269E-04  0.125E-01    0.31       1.0  T
   3   -112.6517721  0.762239E-03  0.125E-01    0.31       1.0  T
   4   -112.6527094 -0.937392E-03  0.130E-02    0.31       1.0  T
   5   -112.6527135 -0.403986E-05  0.582E-03    0.31       2.2  T
   6   -112.6527137 -0.180744E-06  0.360E-03    0.31       3.6  T
   7   -112.6527142 -0.553690E-06  0.116E-03    0.31      11.1  T
   8   -112.6527142 -0.212966E-07  0.702E-04    0.31      18.2  T
   9   -112.6527142 -0.791935E-08  0.345E-04    0.31      37.1  T
     SCC iter.                  ...        0 min,  0.039 sec
     gradient                   ...        0 min,  0.038 sec
 * total energy  :  -110.8008299 Eh     change       -0.1987069E-02 Eh
   gradient norm :     0.0250685 Eh/α   predicted    -0.2890211E-02 (  45.45%)
   displ. norm   :     0.3068883 α      lambda       -0.1486640E-02
   maximum displ.:     0.2168000 α      in ANC's #4, #12, #6, ...

........................................................................
.............................. CYCLE   56 ..............................
........................................................................

 iter      E             dE          RMSdq      gap      omega  full diag
   1   -112.6532032 -0.112653E+03  0.969E-02    0.32       0.0  T
   2   -112.6532260 -0.227319E-04  0.567E-02    0.33       1.0  T
   3   -112.6531389  0.871102E-04  0.415E-02    0.33       1.0  T
   4   -112.6532325 -0.935988E-04  0.127E-02    0.33       1.0  T
   5   -112.6532425 -0.999529E-05  0.354E-03    0.33       3.6  T
   6   -112.6532428 -0.315216E-06  0.209E-03    0.33       6.1  T
   7   -112.6532429 -0.124454E-06  0.746E-04    0.33      17.2  T
   8   -112.6532429 -0.137910E-07  0.424E-04    0.33      30.2  T
     SCC iter.                  ...        0 min,  0.034 sec
     gradient                   ...        0 min,  0.037 sec
 * total energy  :  -110.8016980 Eh     change       -0.8680751E-03 Eh
   gradient norm :     0.0209054 Eh/α   predicted    -0.8133270E-03 (  -6.31%)
   displ. norm   :     0.2871033 α      lambda       -0.1433162E-02
   maximum displ.:     0.1337589 α      in ANC's #15, #13, #14, ...

........................................................................
.............................. CYCLE   57 ..............................
........................................................................

 iter      E             dE          RMSdq      gap      omega  full diag
   1   -112.6424442 -0.112642E+03  0.135E-01    0.29       0.0  T
   2   -112.6424331  0.110627E-04  0.849E-02    0.32       1.0  T
   3   -112.6422515  0.181630E-03  0.737E-02    0.30       1.0  T
   4   -112.6425292 -0.277674E-03  0.138E-02    0.30       1.0  T
   5   -112.6425393 -0.100715E-04  0.516E-03    0.31       2.5  T
   6   -112.6425400 -0.796888E-06  0.222E-03    0.31       5.8  T
   7   -112.6425401 -0.798167E-07  0.110E-03    0.31      11.7  T
   8   -112.6425402 -0.450227E-07  0.382E-04    0.31      33.6  T
   9   -112.6425402 -0.193538E-08  0.226E-04    0.31      56.6  T
     SCC iter.                  ...        0 min,  0.039 sec
     gradient                   ...        0 min,  0.037 sec
 * total energy  :  -110.8019089 Eh     change       -0.2109430E-03 Eh
   gradient norm :     0.0247361 Eh/α   predicted    -0.7756502E-03 ( 267.71%)
   displ. norm   :     0.4425826 α      lambda       -0.1331468E-02
   maximum displ.:     0.2612809 α      in ANC's #12, #4, #9, ...

........................................................................
.............................. CYCLE   58 ..............................
........................................................................

 iter      E             dE          RMSdq      gap      omega  full diag
   1   -112.6494322 -0.112649E+03  0.152E-01    0.30       0.0  T
   2   -112.6494361 -0.386742E-05  0.874E-02    0.30       1.0  T
   3   -112.6491671  0.269048E-03  0.701E-02    0.30       1.0  T
   4   -112.6494655 -0.298448E-03  0.862E-03    0.30       1.5  T
   5   -112.6494684 -0.287969E-05  0.458E-03    0.30       2.8  T
   6   -112.6494690 -0.605953E-06  0.206E-03    0.30       6.2  T
   7   -112.6494691 -0.105187E-06  0.777E-04    0.30      16.5  T
   8   -112.6494691 -0.193230E-07  0.369E-04    0.30      34.7  T
     SCC iter.                  ...        0 min,  0.034 sec
     gradient                   ...        0 min,  0.037 sec
 * total energy  :  -110.8026840 Eh     change       -0.7750557E-03 Eh
   gradient norm :     0.0110498 Eh/α   predicted    -0.7961394E-03 (   2.72%)
   displ. norm   :     0.3179091 α      lambda       -0.5956122E-03
   maximum displ.:     0.2053411 α      in ANC's #4, #12, #2, ...

........................................................................
.............................. CYCLE   59 ..............................
........................................................................

 iter      E             dE          RMSdq      gap      omega  full diag
   1   -112.6527872 -0.112653E+03  0.958E-02    0.29       0.0  T
   2   -112.6527903 -0.313085E-05  0.549E-02    0.29       1.0  T
   3   -112.6527069  0.834200E-04  0.386E-02    0.29       1.0  T
   4   -112.6527980 -0.910926E-04  0.514E-03    0.29       2.5  T
   5   -112.6527989 -0.865800E-06  0.315E-03    0.29       4.1  T
   6   -112.6527993 -0.465093E-06  0.102E-03    0.29      12.6  T
   7   -112.6527994 -0.285470E-07  0.387E-04    0.29      33.1  T
   8   -112.6527994 -0.358609E-08  0.188E-04    0.29      68.2  T
     SCC iter.                  ...        0 min,  0.034 sec
     gradient                   ...        0 min,  0.046 sec
 * total energy  :  -110.8030192 Eh     change       -0.3352351E-03 Eh
   gradient norm :     0.0102121 Eh/α   predicted    -0.3279055E-03 (  -2.19%)
   displ. norm   :     0.2989979 α      lambda       -0.4074306E-03
   maximum displ.:     0.2060913 α      in ANC's #4, #12, #2, ...

........................................................................
.............................. CYCLE   60 ..............................
........................................................................

 iter      E             dE          RMSdq      gap      omega  full diag
   1   -112.6527139 -0.112653E+03  0.831E-02    0.28       0.0  T
   2   -112.6527043  0.953043E-05  0.505E-02    0.28       1.0  T
   3   -112.6526000  0.104309E-03  0.498E-02    0.28       1.0  T
   4   -112.6527357 -0.135703E-03  0.578E-03    0.28       2.2  T
   5   -112.6527372 -0.151530E-05  0.255E-03    0.28       5.0  T
   6   -112.6527375 -0.222943E-06  0.113E-03    0.28      11.3  T
   7   -112.6527375 -0.196395E-07  0.480E-04    0.28      26.7  T
   8   -112.6527375 -0.754176E-08  0.241E-04    0.28      53.1  T
     SCC iter.                  ...        0 min,  0.040 sec
     gradient                   ...        0 min,  0.038 sec
 * total energy  :  -110.8033344 Eh     change       -0.3151651E-03 Eh
   gradient norm :     0.0062651 Eh/α   predicted    -0.2219284E-03 ( -29.58%)
   displ. norm   :     0.3503269 α      lambda       -0.3765711E-03
   maximum displ.:     0.2457767 α      in ANC's #4, #12, #2, ...

........................................................................
.............................. CYCLE   61 ..............................
........................................................................

 iter      E             dE          RMSdq      gap      omega  full diag
   1   -112.6526953 -0.112653E+03  0.944E-02    0.27       0.0  T
   2   -112.6526905  0.476358E-05  0.570E-02    0.27       1.0  T
   3   -112.6525495  0.141073E-03  0.531E-02    0.26       1.0  T
   4   -112.6527185 -0.169060E-03  0.674E-03    0.26       1.9  T
   5   -112.6527203 -0.176844E-05  0.313E-03    0.27       4.1  T
   6   -112.6527206 -0.290385E-06  0.139E-03    0.27       9.2  T
   7   -112.6527206 -0.509579E-07  0.571E-04    0.27      22.4  T
   8   -112.6527207 -0.109337E-07  0.290E-04    0.27      44.1  T
     SCC iter.                  ...        0 min,  0.039 sec
     gradient                   ...        0 min,  0.038 sec
 * total energy  :  -110.8036081 Eh     change       -0.2737145E-03 Eh
   gradient norm :     0.0052120 Eh/α   predicted    -0.2113963E-03 ( -22.77%)
   displ. norm   :     0.3384029 α      lambda       -0.2241308E-03
   maximum displ.:     0.2410820 α      in ANC's #4, #2, #12, ...

........................................................................
.............................. CYCLE   62 ..............................
........................................................................

 iter      E             dE          RMSdq      gap      omega  full diag
   1   -112.6513658 -0.112651E+03  0.850E-02    0.26       0.0  T
   2   -112.6513663 -0.442045E-06  0.495E-02    0.26       1.0  T
   3   -112.6512684  0.978387E-04  0.390E-02    0.26       1.0  T
   4   -112.6513756 -0.107179E-03  0.481E-03    0.26       2.7  T
   5   -112.6513761 -0.472562E-06  0.214E-03    0.26       6.0  T
   6   -112.6513762 -0.124480E-06  0.102E-03    0.26      12.5  T
   7   -112.6513762 -0.340654E-07  0.440E-04    0.26      29.1  T
   8   -112.6513762 -0.761558E-08  0.230E-04    0.26      55.7  T
     SCC iter.                  ...        0 min,  0.038 sec
     gradient                   ...        0 min,  0.037 sec
 * total energy  :  -110.8037875 Eh     change       -0.1794453E-03 Eh
   gradient norm :     0.0057707 Eh/α   predicted    -0.1249012E-03 ( -30.40%)
   displ. norm   :     0.2710787 α      lambda       -0.1821379E-03
   maximum displ.:     0.1912499 α      in ANC's #4, #2, #13, ...

........................................................................
.............................. CYCLE   63 ..............................
........................................................................

 iter      E             dE          RMSdq      gap      omega  full diag
   1   -112.6527345 -0.112653E+03  0.653E-02    0.26       0.0  T
   2   -112.6527375 -0.303742E-05  0.371E-02    0.26       1.0  T
   3   -112.6527295  0.796870E-05  0.125E-02    0.26       1.0  T
   4   -112.6527387 -0.915942E-05  0.340E-03    0.26       3.8  T
   5   -112.6527389 -0.180408E-06  0.172E-03    0.26       7.4  T
   6   -112.6527390 -0.124100E-06  0.585E-04    0.26      21.9  T
   7   -112.6527390 -0.166013E-07  0.252E-04    0.26      50.9  T
     SCC iter.                  ...        0 min,  0.034 sec
     gradient                   ...        0 min,  0.037 sec
 * total energy  :  -110.8039297 Eh     change       -0.1422137E-03 Eh
   gradient norm :     0.0047775 Eh/α   predicted    -0.9776265E-04 ( -31.26%)
   displ. norm   :     0.2755600 α      lambda       -0.1457455E-03
   maximum displ.:     0.1961794 α      in ANC's #4, #2, #12, ...

........................................................................
.............................. CYCLE   64 ..............................
........................................................................

 iter      E             dE          RMSdq      gap      omega  full diag
   1   -112.6523009 -0.112652E+03  0.650E-02    0.26       0.0  T
   2   -112.6523030 -0.216754E-05  0.370E-02    0.26       1.0  T
   3   -112.6522979  0.512220E-05  0.105E-02    0.26       1.2  T
   4   -112.6523039 -0.594158E-05  0.295E-03    0.26       4.3  T
   5   -112.6523040 -0.112103E-06  0.146E-03    0.26       8.8  T
   6   -112.6523041 -0.918178E-07  0.520E-04    0.26      24.6  T
   7   -112.6523041 -0.131464E-07  0.225E-04    0.26      56.9  T
     SCC iter.                  ...        0 min,  0.034 sec
     gradient                   ...        0 min,  0.037 sec
 * total energy  :  -110.8040406 Eh     change       -0.1108809E-03 Eh
   gradient norm :     0.0040192 Eh/α   predicted    -0.7841046E-04 ( -29.28%)
   displ. norm   :     0.2213459 α      lambda       -0.1048296E-03
   maximum displ.:     0.1570565 α      in ANC's #4, #2, #8, ...

........................................................................
.............................. CYCLE   65 ..............................
........................................................................

 iter      E             dE          RMSdq      gap      omega  full diag
   1   -112.6535824 -0.112654E+03  0.536E-02    0.26       0.0  T
   2   -112.6535834 -0.976376E-06  0.303E-02    0.26       1.0  T
   3   -112.6535613  0.220751E-04  0.209E-02    0.26       1.0  T
   4   -112.6535856 -0.242859E-04  0.375E-03    0.26       3.4  T
   5   -112.6535859 -0.340597E-06  0.226E-03    0.26       5.7  T
   6   -112.6535862 -0.268725E-06  0.619E-04    0.26      20.7  T
   7   -112.6535862 -0.179679E-07  0.224E-04    0.26      57.2  T
     SCC iter.                  ...        0 min,  0.034 sec
     gradient                   ...        0 min,  0.037 sec
 * total energy  :  -110.8041232 Eh     change       -0.8262995E-04 Eh
   gradient norm :     0.0036299 Eh/α   predicted    -0.5498357E-04 ( -33.46%)
   displ. norm   :     0.2137559 α      lambda       -0.8652900E-04
   maximum displ.:     0.1523211 α      in ANC's #4, #2, #8, ...

........................................................................
.............................. CYCLE   66 ..............................
........................................................................

 iter      E             dE          RMSdq      gap      omega  full diag
   1   -112.6538063 -0.112654E+03  0.502E-02    0.26       0.0  T
   2   -112.6538074 -0.113483E-05  0.282E-02    0.26       1.0  T
   3   -112.6538053  0.217154E-05  0.747E-03    0.26       1.7  T
   4   -112.6538077 -0.240694E-05  0.296E-03    0.26       4.3  T
   5   -112.6538078 -0.914265E-07  0.172E-03    0.26       7.4  T
   6   -112.6538080 -0.207938E-06  0.419E-04    0.26      30.5  T
   7   -112.6538080 -0.714628E-08  0.194E-04    0.26      66.0  T
     SCC iter.                  ...        0 min,  0.034 sec
     gradient                   ...        0 min,  0.058 sec
 * total energy  :  -110.8041972 Eh     change       -0.7392288E-04 Eh
   gradient norm :     0.0034096 Eh/α   predicted    -0.4524204E-04 ( -38.80%)
   displ. norm   :     0.2601427 α      lambda       -0.1035074E-03
   maximum displ.:     0.1792522 α      in ANC's #4, #2, #8, ...
 * RMSD in coord.:     0.3863498 α      energy gain  -0.3152809E-01 Eh

generating ANC from exact Hessian ...
Using Lindh-Hessian (1995)
 Shifting diagonal of input Hessian by    9.9080786503368840E-003
 Lowest  eigenvalues of input Hessian
    0.000000    0.000000    0.000000    0.000000    0.000000    0.000000
    0.010000    0.010080    0.010236    0.010371    0.010564    0.010768
    0.010916    0.010989    0.011297    0.011969    0.012827    0.012909
 Highest eigenvalues
    2.163039    2.218800    2.231016    2.241852    2.609066    2.640198


........................................................................
.............................. CYCLE   67 ..............................
........................................................................

 iter      E             dE          RMSdq      gap      omega  full diag
   1   -112.6536571 -0.112654E+03  0.638E-02    0.26       0.0  T
   2   -112.6536590 -0.188970E-05  0.357E-02    0.27       1.0  T
   3   -112.6536553  0.369469E-05  0.912E-03    0.26       1.4  T
   4   -112.6536593 -0.402352E-05  0.376E-03    0.27       3.4  T
   5   -112.6536597 -0.330933E-06  0.201E-03    0.27       6.4  T
   6   -112.6536599 -0.227108E-06  0.473E-04    0.27      27.1  T
   7   -112.6536599 -0.587390E-08  0.242E-04    0.27      52.9  T
     SCC iter.                  ...        0 min,  0.032 sec
     gradient                   ...        0 min,  0.037 sec
 * total energy  :  -110.8042842 Eh     change       -0.8706265E-04 Eh
   gradient norm :     0.0032709 Eh/α   predicted     0.0000000E+00 (-100.00%)
   displ. norm   :     0.0414761 α      lambda       -0.2956236E-04
   maximum displ.:     0.0184380 α      in ANC's #4, #2, #9, ...

........................................................................
.............................. CYCLE   68 ..............................
........................................................................

 iter      E             dE          RMSdq      gap      omega  full diag
   1   -112.6537268 -0.112654E+03  0.124E-02    0.26       0.0  T
   2   -112.6537268  0.263960E-07  0.756E-03    0.26       1.7  T
   3   -112.6537250  0.176644E-05  0.674E-03    0.26       1.9  T
   4   -112.6537274 -0.238741E-05  0.120E-03    0.26      10.7  T
   5   -112.6537274 -0.369199E-07  0.718E-04    0.26      17.8  T
   6   -112.6537274 -0.233518E-07  0.250E-04    0.26      51.1  T
     SCC iter.                  ...        0 min,  0.026 sec
     gradient                   ...        0 min,  0.037 sec
 * total energy  :  -110.8043136 Eh     change       -0.2942955E-04 Eh
   gradient norm :     0.0019834 Eh/α   predicted    -0.1706272E-04 ( -42.02%)
   displ. norm   :     0.2433470 α      lambda       -0.9260609E-04
   maximum displ.:     0.1101433 α      in ANC's #4, #2, #9, ...

   *** GEOMETRY OPTIMIZATION CONVERGED AFTER 68 ITERATIONS ***

------------------------------------------------------------------------
 total energy gain   :        -0.2756143 Eh     -172.9506 kcal/mol
 total RMSD          :         2.4527440 a0        1.2979 Å
 total power (kW/mol):       -10.6415460 (step) -122.0108 (real)
------------------------------------------------------------------------

 ANCopt (total)                0 d,  0 h,  0 min,  5.931 sec
 optimizer setup                ...        0 min,  0.000 sec (  0.001%)
 model hessian                  ...        0 min,  0.031 sec (  0.531%)
 ANC generation                 ...        0 min,  0.008 sec (  0.135%)
 coordinate transformation      ...        0 min,  0.002 sec (  0.030%)
 single point calculation       ...        0 min,  5.861 sec ( 98.818%)
 optimization log               ...        0 min,  0.013 sec (  0.221%)
 hessian update                 ...        0 min,  0.001 sec (  0.023%)
 rational function              ...        0 min,  0.008 sec (  0.127%)

================
 final structure:
================
 xtb: 6.7.1 (edcfbbe)
          08202606263D

 61 67  0     0  0            999 V2000
    0.0818   -3.7553   -1.4644 H   0  0  0  0  0  0  0  0  0  0  0  0
    3.9854    2.4031    1.3421 H   0  0  0  0  0  0  0  0  0  0  0  0
   -1.3554   -1.9893    0.1142 C   0  0  0  0  0  0  0  0  0  0  0  0
    4.1687   -1.4457   -0.6169 C   0  0  0  0  0  0  0  0  0  0  0  0
    4.7068   -1.9194   -1.4176 H   0  0  0  0  0  0  0  0  0  0  0  0
   -1.5266    4.3283   -1.3380 C   0  0  0  0  0  0  0  0  0  0  0  0
   -0.1736   -1.7298   -0.5166 N   0  0  0  0  0  0  0  0  0  0  0  0
    1.5744    6.7233    0.8516 H   0  0  0  0  0  0  0  0  0  0  0  0
   -4.6058   -2.3598    2.1688 H   0  0  0  0  0  0  0  0  0  0  0  0
   -0.3710    0.0438    1.3772 S   0  0  0  0  0  0  0  0  0  0  0  0
    2.7287   -2.2995    2.5880 N   0  0  0  0  0  0  0  0  0  0  0  0
   -0.9434    6.9555   -0.4653 C   0  0  0  0  0  0  0  0  0  0  0  0
   -3.1799   -4.4381   -1.8482 N   0  0  0  0  0  0  0  0  0  0  0  0
    2.4924    0.4721    0.2728 C   0  0  0  0  0  0  0  0  0  0  0  0
    2.3300    0.4085    2.7432 C   0  0  0  0  0  0  0  0  0  0  0  0
   -1.7531    3.3275   -1.6731 H   0  0  0  0  0  0  0  0  0  0  0  0
   -2.1029    6.6681   -1.1598 C   0  0  0  0  0  0  0  0  0  0  0  0
    1.1326    5.9116    0.4549 N   0  0  0  0  0  0  0  0  0  0  0  0
    2.0671   -2.4467    4.5097 H   0  0  0  0  0  0  0  0  0  0  0  0
    3.0106   -1.5528    1.5412 C   0  0  0  0  0  0  0  0  0  0  0  0
    3.7636   -3.2051    0.4752 H   0  0  0  0  0  0  0  0  0  0  0  0
   -3.1136   -5.2808   -2.8488 C   0  0  0  0  0  0  0  0  0  0  0  0
   -1.8783   -6.5602   -4.5223 C   0  0  0  0  0  0  0  0  0  0  0  0
   -1.9008   -5.6525   -3.4426 C   0  0  0  0  0  0  0  0  0  0  0  0
   -4.0561   -5.6784   -3.2000 H   0  0  0  0  0  0  0  0  0  0  0  0
    4.0730    0.2784   -0.7460 S   0  0  0  0  0  0  0  0  0  0  0  0
   -1.6453   -1.1214    1.1903 C   0  0  0  0  0  0  0  0  0  0  0  0
    2.2917   -1.7685    3.7018 C   0  0  0  0  0  0  0  0  0  0  0  0
   -3.6938   -2.2361    1.6050 C   0  0  0  0  0  0  0  0  0  0  0  0
    3.6563   -2.1329    0.4336 C   0  0  0  0  0  0  0  0  0  0  0  0
   -0.8017   -4.2084   -1.8814 C   0  0  0  0  0  0  0  0  0  0  0  0
   -3.0010   -0.5602    2.7545 H   0  0  0  0  0  0  0  0  0  0  0  0
   -3.4353   -3.1014    0.5356 C   0  0  0  0  0  0  0  0  0  0  0  0
   -2.0616   -3.9027   -1.3581 C   0  0  0  0  0  0  0  0  0  0  0  0
    3.0687    2.8066    0.9384 C   0  0  0  0  0  0  0  0  0  0  0  0
   -0.7247    7.9586   -0.1311 H   0  0  0  0  0  0  0  0  0  0  0  0
   -2.2651   -2.9952   -0.2310 C   0  0  0  0  0  0  0  0  0  0  0  0
   -3.3058    5.1925   -2.1345 H   0  0  0  0  0  0  0  0  0  0  0  0
    2.8185    4.1591    1.0288 C   0  0  0  0  0  0  0  0  0  0  0  0
    2.1620    1.9341    0.3179 C   0  0  0  0  0  0  0  0  0  0  0  0
   -4.3922   -4.1205    0.2958 C   0  0  0  0  0  0  0  0  0  0  0  0
   -2.8033    7.4619   -1.3721 H   0  0  0  0  0  0  0  0  0  0  0  0
    2.6990   -0.1537    1.5347 N   0  0  0  0  0  0  0  0  0  0  0  0
   -0.7232   -5.0942   -2.9365 C   0  0  0  0  0  0  0  0  0  0  0  0
   -0.3550    4.5919   -0.6390 C   0  0  0  0  0  0  0  0  0  0  0  0
   -5.2237   -4.9111    0.2702 N   0  0  0  0  0  0  0  0  0  0  0  0
    0.2304   -5.3602   -3.3694 H   0  0  0  0  0  0  0  0  0  0  0  0
    1.8785    0.0836    4.7823 H   0  0  0  0  0  0  0  0  0  0  0  0
    2.1750    1.4756    2.7408 H   0  0  0  0  0  0  0  0  0  0  0  0
    3.5233    4.8195    1.5100 H   0  0  0  0  0  0  0  0  0  0  0  0
   -2.8038   -1.2365    1.9384 C   0  0  0  0  0  0  0  0  0  0  0  0
    1.5764   -0.2915   -0.5171 O   0  0  0  0  0  0  0  0  0  0  0  0
    0.7386    3.7776   -0.1903 C   0  0  0  0  0  0  0  0  0  0  0  0
   -1.8644   -7.2977   -5.4002 N   0  0  0  0  0  0  0  0  0  0  0  0
    1.0132    2.4228   -0.2834 C   0  0  0  0  0  0  0  0  0  0  0  0
   -2.3902    5.3745   -1.5923 C   0  0  0  0  0  0  0  0  0  0  0  0
   -0.0706    5.9091   -0.2104 C   0  0  0  0  0  0  0  0  0  0  0  0
    0.3409    1.7751   -0.8230 H   0  0  0  0  0  0  0  0  0  0  0  0
    2.1492   -0.3604    3.8398 C   0  0  0  0  0  0  0  0  0  0  0  0
    1.6373    4.6416    0.4811 C   0  0  0  0  0  0  0  0  0  0  0  0
    0.4465   -0.7380   -0.0082 C   0  0  0  0  0  0  0  0  0  0  0  0
  1 31  1  0  0  0  0
  2 35  1  0  0  0  0
  3  7  4  0  0  0  0
  3 27  4  0  0  0  0
  3 37  4  0  0  0  0
  4  5  1  0  0  0  0
  4 26  1  0  0  0  0
  4 30  2  0  0  0  0
  6 16  1  0  0  0  0
  6 45  4  0  0  0  0
  6 56  4  0  0  0  0
  7 61  4  0  0  0  0
  8 18  1  0  0  0  0
  9 29  1  0  0  0  0
 10 27  4  0  0  0  0
 10 61  4  0  0  0  0
 11 20  4  0  0  0  0
 11 28  4  0  0  0  0
 12 17  4  0  0  0  0
 12 36  1  0  0  0  0
 12 57  4  0  0  0  0
 13 22  4  0  0  0  0
 13 34  4  0  0  0  0
 14 26  2  0  0  0  0
 14 40  1  0  0  0  0
 14 52  1  0  0  0  0
 15 43  4  0  0  0  0
 15 49  1  0  0  0  0
 15 59  4  0  0  0  0
 17 42  1  0  0  0  0
 17 56  4  0  0  0  0
 18 57  4  0  0  0  0
 18 60  4  0  0  0  0
 19 28  1  0  0  0  0
 20 30  1  0  0  0  0
 20 43  4  0  0  0  0
 21 30  1  0  0  0  0
 22 24  4  0  0  0  0
 22 25  1  0  0  0  0
 23 24  1  0  0  0  0
 23 54  3  0  0  0  0
 24 44  4  0  0  0  0
 27 51  4  0  0  0  0
 28 59  4  0  0  0  0
 29 33  4  0  0  0  0
 29 51  4  0  0  0  0
 31 34  4  0  0  0  0
 31 44  4  0  0  0  0
 32 51  1  0  0  0  0
 33 37  4  0  0  0  0
 33 41  1  0  0  0  0
 34 37  1  0  0  0  0
 35 39  4  0  0  0  0
 35 40  4  0  0  0  0
 38 56  1  0  0  0  0
 39 50  1  0  0  0  0
 39 60  4  0  0  0  0
 40 55  4  0  0  0  0
 41 46  3  0  0  0  0
 44 47  1  0  0  0  0
 45 53  4  0  0  0  0
 45 57  4  0  0  0  0
 48 59  1  0  0  0  0
 52 61  1  0  0  0  0
 53 55  4  0  0  0  0
 53 60  4  0  0  0  0
 55 58  1  0  0  0  0
M  END
$$$$

 Bond Distances (Angstroems)
 ---------------------------
H1-C31=1.0769        H2-C35=1.0799        C3-N7=1.3645         C3-C27=1.4126        C3-C37=1.3995        C4-H5=1.0748         
C4-S26=1.7316        C4-C30=1.3558        H5-C4=1.0748         C6-H16=1.0794        C6-C45=1.3894        C6-C56=1.3802        
N7-C3=1.3645         N7-C61=1.2754        H8-N18=1.0056        H9-C29=1.0793        S10-C27=1.7368       S10-C61=1.7885       
N11-C20=1.3164       N11-C28=1.3090       C12-C17=1.3818       C12-H36=1.0797       C12-C57=1.3863       N13-C22=1.3099       
N13-C34=1.3332       C14-S26=1.8905       C14-C40=1.4995       C14-N43=1.4236       C14-O52=1.4305       C15-N43=1.3830       
C15-H49=1.0783       C15-C59=1.3515       H16-C6=1.0794        C17-C12=1.3818       C17-H42=1.0797       C17-C56=1.3940       
N18-H8=1.0056        N18-C57=1.3749       N18-C60=1.3668       H19-C28=1.0784       C20-N11=1.3164       C20-C30=1.4072       
C20-N43=1.4334       H21-C30=1.0784       C22-N13=1.3099       C22-C24=1.4006       C22-H25=1.0816       C23-C24=1.4108       
C23-N54=1.1466       C24-C22=1.4006       C24-C23=1.4108       C24-C44=1.3980       H25-C22=1.0816       S26-C4=1.7316        
S26-C14=1.8905       C27-C3=1.4126        C27-S10=1.7368       C27-C51=1.3839       C28-N11=1.3090       C28-H19=1.0784       
C28-C59=1.4220       C29-H9=1.0793        C29-C33=1.3996       C29-C51=1.3793       C30-C4=1.3558        C30-C20=1.4072       
C30-H21=1.0784       C31-H1=1.0769        C31-C34=1.3981       C31-C44=1.3799       H32-C51=1.0781       C33-C29=1.3996       
C33-C37=1.4030       C33-C41=1.4183       C34-N13=1.3332       C34-C31=1.3981       C34-C37=1.4613       C35-H2=1.0799        
C35-C39=1.3784       C35-C40=1.4030       H36-C12=1.0797       C37-C3=1.3995        C37-C33=1.4030       C37-C34=1.4613       
H38-C56=1.0796       C39-C35=1.3784       C39-H50=1.0791       C39-C60=1.3885       C40-C14=1.4995       C40-C35=1.4030       
C40-C55=1.3857       C41-C33=1.4183       C41-N46=1.1477       H42-C17=1.0797       N43-C14=1.4236       N43-C15=1.3830       
N43-C20=1.4334       C44-C24=1.3980       C44-C31=1.3799       C44-H47=1.0805       C45-C6=1.3894        C45-C53=1.4354       
C45-C57=1.4141       N46-C41=1.1477       H47-C44=1.0805       H48-C59=1.0764       H49-C15=1.0783       H50-C39=1.0791       
C51-C27=1.3839       C51-C29=1.3793       C51-H32=1.0781       O52-C14=1.4305       O52-C61=1.3171       C53-C45=1.4354       
C53-C55=1.3855       C53-C60=1.4160       N54-C23=1.1466       C55-C40=1.3857       C55-C53=1.3855       C55-H58=1.0783       
C56-C6=1.3802        C56-C17=1.3940       C56-H38=1.0796       C57-C12=1.3863       C57-N18=1.3749       C57-C45=1.4141       
H58-C55=1.0783       C59-C15=1.3515       C59-C28=1.4220       C59-H48=1.0764       C60-N18=1.3668       C60-C39=1.3885       
C60-C53=1.4160       C61-N7=1.2754        C61-S10=1.7885       C61-O52=1.3171       
 C  H  Rav=1.0787 sigma=0.0016  Rmin=1.0748  Rmax=1.0816    17
 C  C  Rav=1.4006 sigma=0.0278  Rmin=1.3515  Rmax=1.4995    31
 N  H  Rav=1.0056 sigma=0.0000  Rmin=1.0056  Rmax=1.0056     1
 N  C  Rav=1.3219 sigma=0.0863  Rmin=1.1466  Rmax=1.4334    13
 O  C  Rav=1.3738 sigma=0.0567  Rmin=1.3171  Rmax=1.4305     2
 S  C  Rav=1.7868 sigma=0.0638  Rmin=1.7316  Rmax=1.8905     4

 selected bond angles (degree)
 --------------------
C27-C3-N7=114.40               C37-C3-N7=125.85               C37-C3-C27=119.74              S26-C4-H5=114.26               
C30-C4-H5=122.89               C30-C4-S26=122.79              C45-C6-H16=120.60              C56-C6-H16=120.95              
C56-C6-C45=118.46              C61-N7-C3=112.62               C61-S10-C27= 87.64             

 selected dihedral angles (degree)
 ---------------------------------
C61-N7-C3-C27=359.79          C61-N7-C3-C37=178.73          
           -------------------------------------------------
          |                Final Singlepoint                |
           -------------------------------------------------

          ...................................................
          :                      SETUP                      :
          :.................................................:
          :  # basis functions                 202          :
          :  # atomic orbitals                 200          :
          :  # shells                          106          :
          :  # electrons                       203          :
          :  max. iterations                   250          :
          :  Hamiltonian                  GFN2-xTB          :
          :  restarted?                      false          :
          :  GBSA solvation                  false          :
          :  PC potential                    false          :
          :  electronic temp.          300.0000000     K    :
          :  accuracy                    1.0000000          :
          :  -> integral cutoff          0.2500000E+02      :
          :  -> integral neglect         0.1000000E-07      :
          :  -> SCF convergence          0.1000000E-05 Eh   :
          :  -> wf. convergence          0.1000000E-03 e    :
          :  Broyden damping             0.4000000          :
          :  net charge                          0          :
          :  unpaired electrons                  0          :
          ...................................................

 iter      E             dE          RMSdq      gap      omega  full diag
   1   -112.6537274 -0.112654E+03  0.766E-05    0.26       0.0  T
   2   -112.6537274 -0.416662E-10  0.535E-05    0.26     239.3  T
   3   -112.6537274 -0.952411E-10  0.316E-05    0.26     405.4  T

   *** convergence criteria satisfied after 3 iterations ***

         #    Occupation            Energy/Eh            Energy/eV
      -------------------------------------------------------------
         1        2.0000           -0.7759980             -21.1160
       ...           ...                  ...                  ...
        96        2.0000           -0.4093270             -11.1384
        97        2.0000           -0.3994934             -10.8708
        98        2.0000           -0.3942416             -10.7279
        99        2.0000           -0.3895612             -10.6005
       100        2.0000           -0.3873038             -10.5391
       101        2.0000           -0.3845377             -10.4638
       102        0.9940           -0.3156614              -8.5896 (HOMO)
       103        0.0060           -0.3059471              -8.3252 (LUMO)
       104                         -0.2840100              -7.7283
       105                         -0.2794694              -7.6047
       106                         -0.2672299              -7.2717
       107                         -0.2633722              -7.1667
       ...                                ...                  ...
       200                          1.1698553              31.8334
      -------------------------------------------------------------
                  HL-Gap            0.0097143 Eh            0.2643 eV
             Fermi-level           -0.3304519 Eh           -8.9921 eV

 SCC (total)                   0 d,  0 h,  0 min,  0.065 sec
 SCC setup                      ...        0 min,  0.000 sec (  0.499%)
 Dispersion                     ...        0 min,  0.001 sec (  0.822%)
 classical contributions        ...        0 min,  0.000 sec (  0.222%)
 integral evaluation            ...        0 min,  0.012 sec ( 18.149%)
 iterations                     ...        0 min,  0.014 sec ( 21.384%)
 molecular gradient             ...        0 min,  0.037 sec ( 57.259%)
 printout                       ...        0 min,  0.001 sec (  1.643%)

         :::::::::::::::::::::::::::::::::::::::::::::::::::::
         ::                     SUMMARY                     ::
         :::::::::::::::::::::::::::::::::::::::::::::::::::::
         :: total energy            -110.804313652920 Eh    ::
         :: gradient norm              0.001983509256 Eh/a0 ::
         :: HOMO-LUMO gap              0.264340289536 eV    ::
         ::.................................................::
         :: SCC energy              -112.652575139799 Eh    ::
         :: -> isotropic ES            0.064740764036 Eh    ::
         :: -> anisotropic ES          0.007785816086 Eh    ::
         :: -> anisotropic XC          0.087748537792 Eh    ::
         :: -> dispersion             -0.096382276989 Eh    ::
         :: repulsion energy           1.848261486878 Eh    ::
         :: add. restraining           0.000000000000 Eh    ::
         :: total charge              -0.000000000001 e     ::
         :::::::::::::::::::::::::::::::::::::::::::::::::::::

           -------------------------------------------------
          |                Property Printout                |
           -------------------------------------------------

    * Orbital Energies and Occupations

         #    Occupation            Energy/Eh            Energy/eV
      -------------------------------------------------------------
         1        2.0000           -0.7759980             -21.1160
       ...           ...                  ...                  ...
        90        2.0000           -0.4320353             -11.7563
        91        2.0000           -0.4294105             -11.6849
        92        2.0000           -0.4244253             -11.5492
        93        2.0000           -0.4223488             -11.4927
        94        2.0000           -0.4191617             -11.4060
        95        2.0000           -0.4155424             -11.3075
        96        2.0000           -0.4093270             -11.1384
        97        2.0000           -0.3994934             -10.8708
        98        2.0000           -0.3942416             -10.7279
        99        2.0000           -0.3895612             -10.6005
       100        2.0000           -0.3873038             -10.5391
       101        2.0000           -0.3845377             -10.4638
       102        0.9940           -0.3156614              -8.5896 (HOMO)
       103        0.0060           -0.3059471              -8.3252 (LUMO)
       104                         -0.2840100              -7.7283
       105                         -0.2794694              -7.6047
       106                         -0.2672299              -7.2717
       107                         -0.2633722              -7.1667
       108                         -0.2620526              -7.1308
       109                         -0.2525716              -6.8728
       110                         -0.2415889              -6.5740
       111                         -0.2339237              -6.3654
       112                         -0.2270441              -6.1782
       113                         -0.2151233              -5.8538
       ...                                ...                  ...
       200                          1.1698553              31.8334
      -------------------------------------------------------------
                  HL-Gap            0.0097143 Eh            0.2643 eV
             Fermi-level           -0.3304519 Eh           -8.9921 eV

     #   Z          covCN         q      C6AA      α(0)
     1   1 H        0.926     0.071     2.075     2.253
     2   1 H        0.926     0.043     2.409     2.427
     3   6 C        3.193     0.078    25.779     8.279
     4   6 C        2.889    -0.004    28.110     8.692
     5   1 H        0.926     0.057     2.228     2.334
     6   6 C        2.912    -0.029    28.729     8.789
     7   7 N        1.920    -0.259    27.577     7.786
     8   1 H        0.860     0.163     1.314     1.795
     9   1 H        0.926     0.058     2.223     2.332
    10  16 S        2.202    -0.119   146.062    20.341
    11   7 N        1.844    -0.221    26.661     7.652
    12   6 C        2.909    -0.052    29.290     8.874
    13   7 N        1.850    -0.212    26.455     7.623
    14   6 C        3.734     0.237    17.003     5.885
    15   6 C        2.861     0.034    27.240     8.555
    16   1 H        0.926     0.035     2.513     2.479
    17   6 C        2.925    -0.029    28.731     8.790
    18   7 N        2.756    -0.114    23.492     7.199
    19   1 H        0.926     0.044     2.395     2.420
    20   6 C        2.895     0.131    25.136     8.220
    21   1 H        0.926     0.064     2.149     2.293
    22   6 C        2.905     0.073    26.370     8.420
    23   6 C        1.908     0.112    28.343     8.598
    24   6 C        2.967     0.011    27.768     8.644
    25   1 H        0.925     0.057     2.231     2.336
    26  16 S        2.094    -0.123   146.226    20.352
    27   6 C        2.995     0.026    27.403     8.587
    28   6 C        2.900     0.048    26.918     8.507
    29   6 C        2.937    -0.026    28.647     8.778
    30   6 C        2.954    -0.065    29.628     8.928
    31   6 C        2.915    -0.037    28.928     8.820
    32   1 H        0.926     0.054     2.271     2.357
    33   6 C        2.977     0.022    27.504     8.603
    34   6 C        2.961     0.107    25.633     8.304
    35   6 C        2.927    -0.036    28.903     8.817
    36   1 H        0.926     0.031     2.576     2.510
    37   6 C        2.983     0.006    27.892     8.663
    38   1 H        0.926     0.036     2.508     2.476
    39   6 C        2.909    -0.051    29.260     8.870
    40   6 C        3.013    -0.027    28.666     8.783
    41   6 C        1.916     0.125    28.041     8.552
    42   1 H        0.926     0.037     2.489     2.467
    43   7 N        2.775    -0.089    22.977     7.119
    44   6 C        2.931    -0.002    28.087     8.691
    45   6 C        3.071    -0.013    28.273     8.718
    46   7 N        0.911    -0.226    25.940     7.366
    47   1 H        0.926     0.050     2.322     2.383
    48   1 H        0.926     0.047     2.355     2.400
    49   1 H        0.926     0.048     2.340     2.392
    50   1 H        0.926     0.039     2.457     2.451
    51   6 C        2.930    -0.033    28.830     8.806
    52   8 O        1.741    -0.246    18.061     5.738
    53   6 C        3.076    -0.011    28.212     8.708
    54   7 N        0.911    -0.223    25.868     7.356
    55   6 C        2.914    -0.028    28.702     8.785
    56   6 C        2.920    -0.038    28.945     8.823
    57   6 C        3.077     0.056    26.659     8.465
    58   1 H        0.926     0.041     2.437     2.441
    59   6 C        2.903    -0.053    29.305     8.876
    60   6 C        3.071     0.059    26.608     8.458
    61   6 C        2.909     0.267    22.506     7.779

 Mol. C6AA /au·bohr⁶  :      69398.044579
 Mol. C8AA /au·bohr⁸  :    1894605.976045
 Mol. α(0) /au        :        423.146606


Wiberg/Mayer (AO) data.
largest (>0.10) Wiberg bond orders for each atom

 ---------------------------------------------------------------------------
     #   Z sym  total        # sym  WBO       # sym  WBO       # sym  WBO
 ---------------------------------------------------------------------------
     1   1 H    0.994 --    31 C    0.959
     2   1 H    0.998 --    35 C    0.968
     3   6 C    3.971 --    37 C    1.303    27 C    1.271     7 N    1.177
     4   6 C    3.918 --    30 C    1.598    26 S    1.138     5 H    0.963
     5   1 H    0.994 --     4 C    0.963
     6   6 C    3.982 --    56 C    1.477    45 C    1.362    16 H    0.969
                            12 C    0.109
     7   7 N    3.128 --    61 C    1.607     3 C    1.177    10 S    0.151
     8   1 H    0.972 --    18 N    0.944
     9   1 H    0.996 --    29 C    0.967
    10  16 S    2.522 --    27 C    1.104    61 C    1.020     7 N    0.151
    11   7 N    3.114 --    28 C    1.486    20 C    1.389
    12   6 C    3.985 --    17 C    1.470    57 C    1.358    36 H    0.968
                             6 C    0.109
    13   7 N    3.106 --    22 C    1.478    34 C    1.363
    14   6 C    3.910 --    43 N    1.021    40 C    0.990    52 O    0.908
                            26 S    0.863
    15   6 C    3.953 --    59 C    1.633    43 N    1.155    49 H    0.955
    16   1 H    0.998 --     6 C    0.969
    17   6 C    3.969 --    12 C    1.470    56 C    1.395    42 H    0.971
    18   7 N    3.517 --    60 C    1.176    57 C    1.147     8 H    0.944
    19   1 H    0.997 --    28 C    0.965
    20   6 C    3.915 --    11 N    1.389    30 C    1.253    43 N    1.021
    21   1 H    0.995 --    30 C    0.953
    22   6 C    3.976 --    13 N    1.478    24 C    1.332    25 H    0.961
                            31 C    0.101
    23   6 C    3.947 --    54 N    2.800    24 C    1.099
    24   6 C    3.978 --    44 C    1.354    22 C    1.332    23 C    1.099
    25   1 H    0.996 --    22 C    0.961
    26  16 S    2.367 --     4 C    1.138    14 C    0.863
    27   6 C    3.933 --    51 C    1.381     3 C    1.271    10 S    1.104
    28   6 C    3.935 --    11 N    1.486    59 C    1.224    19 H    0.965
    29   6 C    3.982 --    51 C    1.459    33 C    1.346     9 H    0.967
    30   6 C    3.983 --     4 C    1.598    20 C    1.253    21 H    0.953
    31   6 C    3.985 --    44 C    1.474    34 C    1.354     1 H    0.959
                            22 C    0.101
    32   1 H    0.995 --    51 C    0.966
    33   6 C    3.983 --    29 C    1.346    37 C    1.333    41 C    1.090
    34   6 C    3.977 --    13 N    1.363    31 C    1.354    37 C    1.070
    35   6 C    3.967 --    39 C    1.485    40 C    1.343     2 H    0.968
    36   1 H    0.999 --    12 C    0.968
    37   6 C    3.981 --    33 C    1.333     3 C    1.303    34 C    1.070
    38   1 H    0.998 --    56 C    0.971
    39   6 C    3.984 --    35 C    1.485    60 C    1.343    50 H    0.967
    40   6 C    3.967 --    55 C    1.433    35 C    1.343    14 C    0.990
    41   6 C    3.946 --    46 N    2.786    33 C    1.090
    42   1 H    0.998 --    17 C    0.971
    43   7 N    3.519 --    15 C    1.155    20 C    1.021    14 C    1.021
    44   6 C    3.985 --    31 C    1.474    24 C    1.354    47 H    0.969
    45   6 C    3.983 --     6 C    1.362    57 C    1.263    53 C    1.150
    46   7 N    2.975 --    41 C    2.786
    47   1 H    0.997 --    44 C    0.969
    48   1 H    0.997 --    59 C    0.967
    49   1 H    0.997 --    15 C    0.955
    50   1 H    0.998 --    39 C    0.967
    51   6 C    3.977 --    29 C    1.459    27 C    1.381    32 H    0.966
    52   8 O    2.316 --    61 C    1.137    14 C    0.908
    53   6 C    3.985 --    55 C    1.371    60 C    1.248    45 C    1.150
    54   7 N    2.997 --    23 C    2.800
    55   6 C    3.978 --    40 C    1.433    53 C    1.371    58 H    0.964
    56   6 C    3.984 --     6 C    1.477    17 C    1.395    38 H    0.971
    57   6 C    3.960 --    12 C    1.358    45 C    1.263    18 N    1.147
    58   1 H    0.998 --    55 C    0.964
    59   6 C    3.986 --    15 C    1.633    28 C    1.224    48 H    0.967
    60   6 C    3.963 --    39 C    1.343    53 C    1.248    18 N    1.176
    61   6 C    3.922 --     7 N    1.607    52 O    1.137    10 S    1.020
 ---------------------------------------------------------------------------

Topologies differ in total number of bonds
Writing corrected topology to xtbtopo.sdf

molecular dipole:
                 x           y           z       tot (Debye)
 q only:        1.139       3.375       1.678
   full:        1.510       4.333       2.317      13.066
molecular quadrupole (traceless):
                xx          xy          yy          xz          yz          zz
 q only:       -2.973     -15.932       2.874      -2.943     -12.596       0.099
  q+dip:       -7.406     -25.367       3.066      -2.059     -12.929       4.341
   full:       -7.185     -26.848       0.535      -2.841     -18.148       6.650

           -------------------------------------------------
          |                Geometry Summary                 |
           -------------------------------------------------

      molecular mass/u    :      592.6731204
   center of mass at/Å    :        0.0470976      -0.3371367      -0.0949708
  moments of inertia/u·Å² :        0.4915174E+04   0.1067299E+05   0.1235601E+05
rotational constants/cm⁻¹ :        0.3429712E-02   0.1579467E-02   0.1364326E-02

 * 61 selected distances

     #   Z          #   Z                                           value/Å
     4   6 C        5   1 H                                       1.0748280
     3   6 C        7   7 N                                       1.3645067
     6   6 C       16   1 H                                       1.0794414
    12   6 C       17   6 C                                       1.3818246
     8   1 H       18   7 N                                       1.0056140 (min)
    11   7 N       20   6 C                                       1.3163939
    13   7 N       22   6 C                                       1.3098515
    22   6 C       24   6 C                                       1.4006046
    22   6 C       25   1 H                                       1.0815828
     4   6 C       26  16 S                                       1.7316134
     3   6 C       27   6 C                                       1.4125570
    10  16 S       27   6 C                                       1.7367933 (max)
    11   7 N       28   6 C                                       1.3090092
    19   1 H       28   6 C                                       1.0784427
     9   1 H       29   6 C                                       1.0793184
     4   6 C       30   6 C                                       1.3558276
    20   6 C       30   6 C                                       1.4072127
    21   1 H       30   6 C                                       1.0783894
     1   1 H       31   6 C                                       1.0769033
    29   6 C       33   6 C                                       1.3996387
    13   7 N       34   6 C                                       1.3332061
    31   6 C       34   6 C                                       1.3980853
     2   1 H       35   6 C                                       1.0798639
    12   6 C       36   1 H                                       1.0797221
     3   6 C       37   6 C                                       1.3995214
    33   6 C       37   6 C                                       1.4030096
    35   6 C       39   6 C                                       1.3784118
    35   6 C       40   6 C                                       1.4030292
    17   6 C       42   1 H                                       1.0796895
    14   6 C       43   7 N                                       1.4236079
    15   6 C       43   7 N                                       1.3830208
    24   6 C       44   6 C                                       1.3980391
    31   6 C       44   6 C                                       1.3798683
     6   6 C       45   6 C                                       1.3894412
    41   6 C       46   7 N                                       1.1476756
    44   6 C       47   1 H                                       1.0805350
    15   6 C       49   1 H                                       1.0782892
    39   6 C       50   1 H                                       1.0790862
    27   6 C       51   6 C                                       1.3838553
    29   6 C       51   6 C                                       1.3792616
    32   1 H       51   6 C                                       1.0781486
    14   6 C       52   8 O                                       1.4304793
    45   6 C       53   6 C                                       1.4353845
    23   6 C       54   7 N                                       1.1465893
    40   6 C       55   6 C                                       1.3856511
    53   6 C       55   6 C                                       1.3855306
     6   6 C       56   6 C                                       1.3802055
    17   6 C       56   6 C                                       1.3939574
    38   1 H       56   6 C                                       1.0795830
    12   6 C       57   6 C                                       1.3862705
    18   7 N       57   6 C                                       1.3749041
    45   6 C       57   6 C                                       1.4141127
    55   6 C       58   1 H                                       1.0782905
    15   6 C       59   6 C                                       1.3514955
    28   6 C       59   6 C                                       1.4220017
    48   1 H       59   6 C                                       1.0764023
    18   7 N       60   6 C                                       1.3668459
    39   6 C       60   6 C                                       1.3885143
Note: The following floating-point exceptions are signalling: IEEE_UNDERFLOW_FLAG IEEE_DENORMAL
normal termination of xtb
    53   6 C       60   6 C                                       1.4160086
     7   7 N       61   6 C                                       1.2754109
    52   8 O       61   6 C                                       1.3171421

 * 6 distinct bonds (by element types)

   Z      Z             #   av. dist./Å        max./Å        min./Å
   1 H    6 C          17     1.0787363     1.0815828     1.0748280
   6 C    6 C          27     1.3936785     1.4353845     1.3514955
   1 H    7 N           1     1.0056140     1.0056140     1.0056140
   6 C    7 N          12     1.3125851     1.4236079     1.1465893
   6 C    8 O           2     1.3738107     1.4304793     1.3171421
   6 C   16 S           2     1.7342034     1.7367933     1.7316134


optimized geometry written to: xtbopt.sdf


           -------------------------------------------------
          | TOTAL ENERGY             -110.804313652920 Eh   |
          | GRADIENT NORM               0.001983509256 Eh/α |
          | HOMO-LUMO GAP               0.264340289536 eV   |
           -------------------------------------------------

------------------------------------------------------------------------
 * finished run on 2026/08/20 at 06:26:04.545     
------------------------------------------------------------------------
 total:
 * wall-time:     0 d,  0 h,  0 min,  6.145 sec
 *  cpu-time:     0 d,  0 h,  0 min,  6.121 sec
 * ratio c/w:     0.996 speedup
 SCF:
 * wall-time:     0 d,  0 h,  0 min,  0.114 sec
 *  cpu-time:     0 d,  0 h,  0 min,  0.114 sec
 * ratio c/w:     0.999 speedup
 ANC optimizer:
 * wall-time:     0 d,  0 h,  0 min,  5.999 sec
 *  cpu-time:     0 d,  0 h,  0 min,  5.987 sec
 * ratio c/w:     0.998 speedup

