      -----------------------------------------------------------      
     |                   =====================                   |     
     |                           x T B                           |     
     |                   =====================                   |     
     |                         S. Grimme                         |     
     |          Mulliken Center for Theoretical Chemistry        |     
     |                    University of Bonn                     |     
      -----------------------------------------------------------      

   * xtb version 6.7.1 (edcfbbe) compiled by 'conda@5dfe00f5fb80' on 2026-06-10

   xtb is free software: you can redistribute it and/or modify it under
   the terms of the GNU Lesser General Public License as published by
   the Free Software Foundation, either version 3 of the License, or
   (at your option) any later version.
   
   xtb is distributed in the hope that it will be useful,
   but WITHOUT ANY WARRANTY; without even the implied warranty of
   MERCHANTABILITY or FITNESS FOR A PARTICULAR PURPOSE.  See the
   GNU Lesser General Public License for more details.
   
   Cite this work as:
   * C. Bannwarth, E. Caldeweyher, S. Ehlert, A. Hansen, P. Pracht,
     J. Seibert, S. Spicher, S. Grimme, WIREs Comput. Mol. Sci., 2020, 11,
     e01493. DOI: 10.1002/wcms.1493
   
   for GFN2-xTB:
   * C. Bannwarth, S. Ehlert and S. Grimme., J. Chem. Theory Comput., 2019,
     15, 1652-1671. DOI: 10.1021/acs.jctc.8b01176
   for GFN1-xTB:
   * S. Grimme, C. Bannwarth, P. Shushkov, J. Chem. Theory Comput., 2017,
     13, 1989-2009. DOI: 10.1021/acs.jctc.7b00118
   for GFN0-xTB:
   * P. Pracht, E. Caldeweyher, S. Ehlert, S. Grimme, ChemRxiv, 2019, preprint.
     DOI: 10.26434/chemrxiv.8326202.v1
   for GFN-FF:
   * S. Spicher and S. Grimme, Angew. Chem. Int. Ed., 2020, 59, 15665-15673.
     DOI: 10.1002/anie.202004239
   
   for ALPB and GBSA implicit solvation:
   * S. Ehlert, M. Stahn, S. Spicher, S. Grimme, J. Chem. Theory Comput.,
     2021, 17, 4250-4261. DOI: 10.1021/acs.jctc.1c00471
   
   for ddCOSMO and CPCM-X implicit solvation:
   * M. Stahn, S. Ehlert, S. Grimme, J. Phys. Chem. A,
     2023, XX, XXXX-XXXX. DOI: 10.1021/acs.jpca.3c04382
   
   for DFT-D4:
   * E. Caldeweyher, C. Bannwarth and S. Grimme, J. Chem. Phys., 2017,
     147, 034112. DOI: 10.1063/1.4993215
   * E. Caldeweyher, S. Ehlert, A. Hansen, H. Neugebauer, S. Spicher,
     C. Bannwarth and S. Grimme, J. Chem. Phys., 2019, 150, 154122.
     DOI: 10.1063/1.5090222
   * E. Caldeweyher, J.-M. Mewes, S. Ehlert and S. Grimme, Phys. Chem. Chem. Phys.
     2020, 22, 8499-8512. DOI: 10.1039/D0CP00502A
   
   for sTDA-xTB:
   * S. Grimme and C. Bannwarth, J. Chem. Phys., 2016, 145, 054103.
     DOI: 10.1063/1.4959605
   
   in the mass-spec context:
   * V. Asgeirsson, C. Bauer and S. Grimme, Chem. Sci., 2017, 8, 4879.
     DOI: 10.1039/c7sc00601b
   * J. Koopman and S. Grimme, ACS Omega 2019, 4, 12, 15120-15133.
     DOI: 10.1021/acsomega.9b02011
   
   for metadynamics refer to:
   * S. Grimme, J. Chem. Theory Comput., 2019, 155, 2847-2862
     DOI: 10.1021/acs.jctc.9b00143
   
   for SPH calculations refer to:
   * S. Spicher and S. Grimme, J. Chem. Theory Comput., 2021, 17, 1701-1714
     DOI: 10.1021/acs.jctc.0c01306
   
   for ONIOM refer to:
   * C. Plett, A. Katbashev, S. Ehlert, S. Grimme, M. Bursch,
     Phys. Chem. Chem. Phys., 2023, 25, 17860-17868. DOI: 10.1039/D3CP02178E
   
   for DIPRO refer to:
   * J. Kohn, N. Gildemeister, S. Grimme, D. Fazzi, A. Hansen,
     J. Chem. Phys., 2023, just accepted.
   
   for PTB refer to:
   * S. Grimme, M. Mueller, A. Hansen, J. Chem. Phys., 2023, 158, 124111.
     DOI: 10.1063/5.0137838
   
   with help from (in alphabetical order)
   P. Atkinson, C. Bannwarth, F. Bohle, G. Brandenburg, E. Caldeweyher
   M. Checinski, S. Dohm, S. Ehlert, S. Ehrlich, I. Gerasimov, C. Hölzer
   A. Katbashev, J. Kohn, J. Koopman, C. Lavigne, S. Lehtola, F. März, M. Müller,
   F. Musil, H. Neugebauer, J. Pisarek, C. Plett, P. Pracht, F. Pultar,
   J. Seibert, P. Shushkov, S. Spicher, M. Stahn, M. Steiner, T. Strunk,
   J. Stückrath, T. Rose, and J. Unsleber
   
 * started run on 2026/08/25 at 07:09:58.343     
   ID    Z sym.   atoms
    1    1 H      1, 3, 5, 8-10, 14, 16, 21, 31, 34, 36, 38, 39, 47, 51, 58,
                  59, 62
    2    6 C      2, 6, 7, 11, 13, 15, 17, 19, 20, 22, 24-30, 33, 37, 41-46,
                  48-50, 52-57, 60, 61
    3    7 N      4, 12, 18, 23, 32, 35, 40

           -------------------------------------------------
          |                Calculation Setup                |
           -------------------------------------------------

          program call               : xtb 00030.sdf --opt loose --cycles 500
          coordinate file            : 00030.sdf
          omp threads                :                     1


           -------------------------------------------------
          |                 G F N 2 - x T B                 |
           -------------------------------------------------

        Reference                      10.1021/acs.jctc.8b01176
      * Hamiltonian:
        H0-scaling (s, p, d)           1.850000    2.230000    2.230000
        zeta-weighting                 0.500000
      * Dispersion:
        s8                             2.700000
        a1                             0.520000
        a2                             5.000000
        s9                             5.000000
      * Repulsion:
        kExp                           1.500000    1.000000
        rExp                           1.000000
      * Coulomb:
        alpha                          2.000000
        third order                    shell-resolved
        anisotropic                    true
        a3                             3.000000
        a5                             4.000000
        cn-shift                       1.200000
        cn-exp                         4.000000
        max-rad                        5.000000


          ...................................................
          :                      SETUP                      :
          :.................................................:
          :  # basis functions                 191          :
          :  # atomic orbitals                 191          :
          :  # shells                          105          :
          :  # electrons                       198          :
          :  max. iterations                   250          :
          :  Hamiltonian                  GFN2-xTB          :
          :  restarted?                      false          :
          :  GBSA solvation                  false          :
          :  PC potential                    false          :
          :  electronic temp.          300.0000000     K    :
          :  accuracy                    1.0000000          :
          :  -> integral cutoff          0.2500000E+02      :
          :  -> integral neglect         0.1000000E-07      :
          :  -> SCF convergence          0.1000000E-05 Eh   :
          :  -> wf. convergence          0.1000000E-03 e    :
          :  Broyden damping             0.4000000          :
          :  net charge                          0          :
          :  unpaired electrons                  0          :
          ...................................................

 iter      E             dE          RMSdq      gap      omega  full diag
   1   -108.3334022 -0.108333E+03  0.495E+00    0.29       0.0  T
   2   -107.9655279  0.367874E+00  0.385E+00    0.68       1.0  T
   3   -106.9841906  0.981337E+00  0.347E+00    0.11       1.0  T
   4   -104.7439631  0.224023E+01  0.392E+00    0.08       1.0  T
   5   -107.6914565 -0.294749E+01  0.241E+00    0.33       1.0  T
   6   -108.5077220 -0.816266E+00  0.123E+00    0.45       1.0  T
   7   -108.5297539 -0.220319E-01  0.837E-01    0.53       1.0  T
   8   -108.5341062 -0.435225E-02  0.916E-01    0.59       1.0  T
   9   -108.5592462 -0.251401E-01  0.651E-01    0.58       1.0  T
  10   -108.5832932 -0.240470E-01  0.181E-01    0.49       1.0  T
  11   -108.5838220 -0.528814E-03  0.127E-01    0.47       1.0  T
  12   -108.5841753 -0.353258E-03  0.837E-02    0.43       1.0  T
  13   -108.5846461 -0.470857E-03  0.324E-02    0.35       1.0  T
  14   -108.5846714 -0.252611E-04  0.170E-02    0.35       1.0  T
  15   -108.5846852 -0.137507E-04  0.117E-02    0.33       1.1  T
  16   -108.5846945 -0.932198E-05  0.494E-03    0.33       2.6  T
  17   -108.5846954 -0.893872E-06  0.244E-03    0.32       5.2  T
  18   -108.5846954  0.423019E-08  0.155E-03    0.33       8.2  T
  19   -108.5846955 -0.141872E-06  0.794E-04    0.32      16.0  T
  20   -108.5846955 -0.393347E-07  0.452E-04    0.32      28.1  T

   *** convergence criteria satisfied after 20 iterations ***

         #    Occupation            Energy/Eh            Energy/eV
      -------------------------------------------------------------
         1        2.0000           -0.6803527             -18.5133
       ...           ...                  ...                  ...
        93        2.0000           -0.3789183             -10.3109
        94        2.0000           -0.3749033             -10.2016
        95        2.0000           -0.3704592             -10.0807
        96        2.0000           -0.3683939             -10.0245
        97        2.0000           -0.3569233              -9.7124
        98        1.9995           -0.3417065              -9.2983
        99        1.9964           -0.3398437              -9.2476 (HOMO)
       100        0.0041           -0.3279487              -8.9239 (LUMO)
       101        0.0000           -0.3224104              -8.7732
       102                         -0.3017410              -8.2108
       103                         -0.2781355              -7.5685
       104                         -0.2770699              -7.5395
       ...                                ...                  ...
       191                          0.8124426              22.1077
      -------------------------------------------------------------
                  HL-Gap            0.0118950 Eh            0.3237 eV
             Fermi-level           -0.3338348 Eh           -9.0841 eV

 SCC (total)                   0 d,  0 h,  0 min,  0.139 sec
 SCC setup                      ...        0 min,  0.001 sec (  0.377%)
 Dispersion                     ...        0 min,  0.001 sec (  0.794%)
 classical contributions        ...        0 min,  0.000 sec (  0.117%)
 integral evaluation            ...        0 min,  0.012 sec (  8.432%)
 iterations                     ...        0 min,  0.083 sec ( 60.208%)
 molecular gradient             ...        0 min,  0.041 sec ( 29.698%)
 printout                       ...        0 min,  0.001 sec (  0.365%)

         :::::::::::::::::::::::::::::::::::::::::::::::::::::
         ::                     SUMMARY                     ::
         :::::::::::::::::::::::::::::::::::::::::::::::::::::
         :: total energy            -106.932059196861 Eh    ::
         :: gradient norm              0.358201237035 Eh/a0 ::
         :: HOMO-LUMO gap              0.323679196155 eV    ::
         ::.................................................::
         :: SCC energy              -108.585557196405 Eh    ::
         :: -> isotropic ES            0.051384676592 Eh    ::
         :: -> anisotropic ES          0.012918851701 Eh    ::
         :: -> anisotropic XC          0.102413215809 Eh    ::
         :: -> dispersion             -0.085251098186 Eh    ::
         :: repulsion energy           1.653497999544 Eh    ::
         :: add. restraining           0.000000000000 Eh    ::
         :: total charge               0.000000000000 e     ::
         :::::::::::::::::::::::::::::::::::::::::::::::::::::

      ----------------------------------------------------------- 
     |                   =====================                   |
     |                        A N C O P T                        |
     |                   =====================                   |
     |               Approximate Normal Coordinate               |
     |                Rational Function Optimizer                |
      ----------------------------------------------------------- 
      ----------------------------------------------------------- 
     |                   =====================                   |
     |                        A N C O P T                        |
     |                   =====================                   |
     |               Approximate Normal Coordinate               |
     |                Rational Function Optimizer                |
      ----------------------------------------------------------- 

          ...................................................
          :                      SETUP                      :
          :.................................................:
          :   optimization level             loose          :
          :   max. optcycles                   500          :
          :   ANC micro-cycles                  20          :
          :   degrees of freedom               180          :
          :.................................................:
          :   RF solver                   davidson          :
          :   write xtbopt.log                true          :
          :   linear?                        false          :
          :   energy convergence         0.5000000E-04 Eh   :
          :   grad. convergence          0.4000000E-02 Eh/α :
          :   maxmium RF displ.          1.0000000          :
          :   Hlow (freq-cutoff)         0.1000000E-01      :
          :   Hmax (freq-cutoff)         5.0000000          :
          :   S6 in model hess.         20.0000000          :
          ...................................................

generating ANC from exact Hessian ...
Using Lindh-Hessian (1995)
 Shifting diagonal of input Hessian by    9.9149506884505870E-003
 Lowest  eigenvalues of input Hessian
    0.000000    0.000000    0.000000    0.000000    0.000000    0.000000
    0.010000    0.010032    0.010218    0.010311    0.010582    0.010783
    0.010805    0.011069    0.011440    0.011723    0.012287    0.012980
 Highest eigenvalues
    2.012829    2.048169    2.116840    2.157082    2.281185    2.489075


........................................................................
.............................. CYCLE    1 ..............................
........................................................................

 iter      E             dE          RMSdq      gap      omega  full diag
   1   -108.5846956 -0.108585E+03  0.418E-04    0.32       0.0  T
   2   -108.5846953  0.236703E-06  0.142E-03    0.32       8.9  T
   3   -108.5846955 -0.204720E-06  0.636E-04    0.32      20.0  T
   4   -108.5846956 -0.390511E-07  0.219E-04    0.32      58.1  T
     SCC iter.                  ...        0 min,  0.018 sec
     gradient                   ...        0 min,  0.036 sec
 * total energy  :  -106.9320592 Eh     change       -0.2336087E-07 Eh
   gradient norm :     0.3581953 Eh/α   predicted     0.0000000E+00 (-100.00%)
   displ. norm   :     0.5026433 α      lambda       -0.1209279E+00
   maximum displ.:     0.1301109 α      in ANC's #21, #73, #97, ...

........................................................................
.............................. CYCLE    2 ..............................
........................................................................

 iter      E             dE          RMSdq      gap      omega  full diag
   1   -108.7426469 -0.108743E+03  0.333E-01    0.50       0.0  T
   2   -108.7425987  0.482090E-04  0.226E-01    0.45       1.0  T
   3   -108.7317477  0.108510E-01  0.348E-01    0.40       1.0  T
   4   -108.7297213  0.202638E-02  0.335E-01    0.47       1.0  T
   5   -108.7433271 -0.136058E-01  0.465E-02    0.42       1.0  T
   6   -108.7435567 -0.229562E-03  0.117E-02    0.43       1.1  T
   7   -108.7435619 -0.516319E-05  0.578E-03    0.43       2.2  T
   8   -108.7435627 -0.810944E-06  0.273E-03    0.43       4.7  T
   9   -108.7435629 -0.193431E-06  0.135E-03    0.43       9.4  T
  10   -108.7435630 -0.109439E-06  0.553E-04    0.43      23.0  T
  11   -108.7435630 -0.170419E-07  0.232E-04    0.43      54.8  T
     SCC iter.                  ...        0 min,  0.044 sec
     gradient                   ...        0 min,  0.036 sec
 * total energy  :  -107.0198537 Eh     change       -0.8779449E-01 Eh
   gradient norm :     0.1340632 Eh/α   predicted    -0.7582155E-01 ( -13.64%)
   displ. norm   :     0.6171949 α      lambda       -0.5364359E-01
   maximum displ.:     0.2422988 α      in ANC's #21, #17, #52, ...

........................................................................
.............................. CYCLE    3 ..............................
........................................................................

 iter      E             dE          RMSdq      gap      omega  full diag
   1   -108.8511628 -0.108851E+03  0.307E-01    0.59       0.0  T
   2   -108.8504274  0.735363E-03  0.215E-01    0.58       1.0  T
   3   -108.8408715  0.955599E-02  0.333E-01    0.51       1.0  T
   4   -108.8489203 -0.804880E-02  0.151E-01    0.59       1.0  T
   5   -108.8516083 -0.268808E-02  0.325E-02    0.55       1.0  T
   6   -108.8517236 -0.115237E-03  0.811E-03    0.56       1.6  T
   7   -108.8517259 -0.230810E-05  0.389E-03    0.56       3.3  T
   8   -108.8517261 -0.187584E-06  0.171E-03    0.56       7.4  T
   9   -108.8517262 -0.167963E-06  0.653E-04    0.56      19.5  T
  10   -108.8517263 -0.258846E-07  0.282E-04    0.56      45.0  T
     SCC iter.                  ...        0 min,  0.041 sec
     gradient                   ...        0 min,  0.035 sec
 * total energy  :  -107.0581067 Eh     change       -0.3825304E-01 Eh
   gradient norm :     0.0745033 Eh/α   predicted    -0.3703911E-01 (  -3.17%)
   displ. norm   :     0.6848662 α      lambda       -0.2638539E-01
   maximum displ.:     0.3632006 α      in ANC's #21, #17, #14, ...

........................................................................
.............................. CYCLE    4 ..............................
........................................................................

 iter      E             dE          RMSdq      gap      omega  full diag
   1   -108.9023337 -0.108902E+03  0.273E-01    0.66       0.0  T
   2   -108.9019483  0.385475E-03  0.177E-01    0.66       1.0  T
   3   -108.8939644  0.798391E-02  0.286E-01    0.60       1.0  T
   4   -108.9021597 -0.819534E-02  0.605E-02    0.66       1.0  T
   5   -108.9025216 -0.361909E-03  0.157E-02    0.65       1.0  T
   6   -108.9025448 -0.231965E-04  0.518E-03    0.65       2.4  T
   7   -108.9025447  0.633765E-07  0.302E-03    0.65       4.2  T
   8   -108.9025453 -0.563771E-06  0.922E-04    0.65      13.8  T
   9   -108.9025453 -0.474711E-07  0.311E-04    0.65      40.8  T
     SCC iter.                  ...        0 min,  0.036 sec
     gradient                   ...        0 min,  0.034 sec
 * total energy  :  -107.0781641 Eh     change       -0.2005737E-01 Eh
   gradient norm :     0.0583627 Eh/α   predicted    -0.1938065E-01 (  -3.37%)
   displ. norm   :     0.7921787 α      lambda       -0.2114051E-01
   maximum displ.:     0.3506186 α      in ANC's #17, #21, #18, ...

........................................................................
.............................. CYCLE    5 ..............................
........................................................................

 iter      E             dE          RMSdq      gap      omega  full diag
   1   -108.9612810 -0.108961E+03  0.405E-01    0.72       0.0  T
   2   -108.9609882  0.292760E-03  0.241E-01    0.70       1.0  T
   3   -108.9489974  0.119909E-01  0.340E-01    0.70       1.0  T
   4   -108.9614791 -0.124817E-01  0.348E-02    0.72       1.0  T
   5   -108.9615475 -0.683750E-04  0.120E-02    0.72       1.1  T
   6   -108.9615530 -0.556950E-05  0.763E-03    0.72       1.7  T
   7   -108.9615560 -0.296784E-05  0.297E-03    0.72       4.3  T
   8   -108.9615566 -0.618407E-06  0.886E-04    0.72      14.3  T
   9   -108.9615567 -0.386764E-07  0.377E-04    0.72      33.7  T
     SCC iter.                  ...        0 min,  0.046 sec
     gradient                   ...        0 min,  0.034 sec
 * total energy  :  -107.0924261 Eh     change       -0.1426202E-01 Eh
   gradient norm :     0.0439948 Eh/α   predicted    -0.1720361E-01 (  20.63%)
   displ. norm   :     0.7516216 α      lambda       -0.1651864E-01
   maximum displ.:     0.3858718 α      in ANC's #21, #17, #14, ...

........................................................................
.............................. CYCLE    6 ..............................
........................................................................

 iter      E             dE          RMSdq      gap      omega  full diag
   1   -108.9935636 -0.108994E+03  0.329E-01    0.69       0.0  T
   2   -108.9931853  0.378308E-03  0.204E-01    0.67       1.0  T
   3   -108.9823575  0.108277E-01  0.319E-01    0.79       1.0  T
   4   -108.9937064 -0.113489E-01  0.278E-02    0.70       1.0  T
   5   -108.9937679 -0.615101E-04  0.966E-03    0.69       1.3  T
   6   -108.9937713 -0.339453E-05  0.567E-03    0.69       2.2  T
   7   -108.9937717 -0.436234E-06  0.278E-03    0.69       4.6  T
   8   -108.9937724 -0.686728E-06  0.744E-04    0.69      17.1  T
   9   -108.9937725 -0.314268E-07  0.318E-04    0.69      39.9  T
     SCC iter.                  ...        0 min,  0.044 sec
     gradient                   ...        0 min,  0.035 sec
 * total energy  :  -107.1042672 Eh     change       -0.1184111E-01 Eh
   gradient norm :     0.0508276 Eh/α   predicted    -0.1292543E-01 (   9.16%)
   displ. norm   :     0.7201609 α      lambda       -0.1113173E-01
   maximum displ.:     0.3108412 α      in ANC's #17, #14, #21, ...

........................................................................
.............................. CYCLE    7 ..............................
........................................................................

 iter      E             dE          RMSdq      gap      omega  full diag
   1   -108.9956946 -0.108996E+03  0.221E-01    0.66       0.0  T
   2   -108.9954064  0.288171E-03  0.146E-01    0.64       1.0  T
   3   -108.9890738  0.633260E-02  0.244E-01    0.73       1.0  T
   4   -108.9957428 -0.666899E-02  0.241E-02    0.67       1.0  T
   5   -108.9957843 -0.414676E-04  0.680E-03    0.66       1.9  T
   6   -108.9957869 -0.263638E-05  0.313E-03    0.66       4.1  T
   7   -108.9957870 -0.519727E-07  0.190E-03    0.66       6.7  T
   8   -108.9957872 -0.264309E-06  0.480E-04    0.66      26.5  T
   9   -108.9957872 -0.637864E-08  0.229E-04    0.66      55.6  T
     SCC iter.                  ...        0 min,  0.040 sec
     gradient                   ...        0 min,  0.035 sec
 * total energy  :  -107.1129480 Eh     change       -0.8680753E-02 Eh
   gradient norm :     0.0313328 Eh/α   predicted    -0.8452513E-02 (  -2.63%)
   displ. norm   :     0.7518040 α      lambda       -0.8652398E-02
   maximum displ.:     0.3270261 α      in ANC's #17, #14, #7, ...

........................................................................
.............................. CYCLE    8 ..............................
........................................................................

 iter      E             dE          RMSdq      gap      omega  full diag
   1   -109.0098618 -0.109010E+03  0.252E-01    0.65       0.0  T
   2   -109.0091590  0.702864E-03  0.172E-01    0.63       1.0  T
   3   -109.0007876  0.837140E-02  0.289E-01    0.74       1.0  T
   4   -109.0099731 -0.918553E-02  0.263E-02    0.66       1.0  T
   5   -109.0100258 -0.527345E-04  0.848E-03    0.65       1.5  T
   6   -109.0100295 -0.368764E-05  0.405E-03    0.65       3.1  T
   7   -109.0100297 -0.178164E-06  0.219E-03    0.65       5.8  T
   8   -109.0100301 -0.349623E-06  0.521E-04    0.65      24.4  T
   9   -109.0100301 -0.110732E-07  0.221E-04    0.65      57.4  T
     SCC iter.                  ...        0 min,  0.037 sec
     gradient                   ...        0 min,  0.040 sec
 * total energy  :  -107.1199593 Eh     change       -0.7011325E-02 Eh
   gradient norm :     0.0291478 Eh/α   predicted    -0.6771441E-02 (  -3.42%)
   displ. norm   :     0.7614053 α      lambda       -0.7407431E-02
   maximum displ.:     0.3411388 α      in ANC's #7, #17, #5, ...

........................................................................
.............................. CYCLE    9 ..............................
........................................................................

 iter      E             dE          RMSdq      gap      omega  full diag
   1   -109.0229975 -0.109023E+03  0.279E-01    0.64       0.0  T
   2   -109.0216377  0.135978E-02  0.197E-01    0.61       1.0  T
   3   -109.0113460  0.102917E-01  0.330E-01    0.73       1.0  T
   4   -109.0230889 -0.117429E-01  0.384E-02    0.64       1.0  T
   5   -109.0232273 -0.138409E-03  0.126E-02    0.64       1.0  T
   6   -109.0232394 -0.121669E-04  0.424E-03    0.63       3.0  T
   7   -109.0232394  0.339399E-07  0.216E-03    0.63       5.9  T
   8   -109.0232396 -0.244843E-06  0.634E-04    0.63      20.0  T
   9   -109.0232397 -0.220732E-07  0.235E-04    0.63      54.0  T
     SCC iter.                  ...        0 min,  0.036 sec
     gradient                   ...        0 min,  0.038 sec
 * total energy  :  -107.1259074 Eh     change       -0.5948078E-02 Eh
   gradient norm :     0.0244388 Eh/α   predicted    -0.5850901E-02 (  -1.63%)
   displ. norm   :     0.7475823 α      lambda       -0.6580168E-02
   maximum displ.:     0.3830927 α      in ANC's #7, #5, #17, ...

........................................................................
.............................. CYCLE   10 ..............................
........................................................................

 iter      E             dE          RMSdq      gap      omega  full diag
   1   -109.0402474 -0.109040E+03  0.254E-01    0.62       0.0  T
   2   -109.0386567  0.159075E-02  0.188E-01    0.59       1.0  T
   3   -109.0307483  0.790838E-02  0.301E-01    0.71       1.0  T
   4   -109.0403580 -0.960973E-02  0.417E-02    0.62       1.0  T
   5   -109.0405125 -0.154494E-03  0.138E-02    0.62       1.0  T
   6   -109.0405294 -0.168336E-04  0.422E-03    0.62       3.0  T
   7   -109.0405294 -0.728993E-07  0.213E-03    0.62       6.0  T
   8   -109.0405296 -0.204285E-06  0.664E-04    0.62      19.1  T
   9   -109.0405297 -0.232887E-07  0.254E-04    0.62      50.0  T
     SCC iter.                  ...        0 min,  0.036 sec
     gradient                   ...        0 min,  0.038 sec
 * total energy  :  -107.1312253 Eh     change       -0.5317900E-02 Eh
   gradient norm :     0.0217573 Eh/α   predicted    -0.5128854E-02 (  -3.55%)
   displ. norm   :     0.7619467 α      lambda       -0.5434426E-02
   maximum displ.:     0.4256922 α      in ANC's #7, #5, #10, ...

........................................................................
.............................. CYCLE   11 ..............................
........................................................................

 iter      E             dE          RMSdq      gap      omega  full diag
   1   -109.0531422 -0.109053E+03  0.259E-01    0.60       0.0  T
   2   -109.0495531  0.358911E-02  0.228E-01    0.57       1.0  T
   3   -109.0459081  0.364502E-02  0.279E-01    0.68       1.0  T
   4   -109.0533903 -0.748224E-02  0.520E-02    0.60       1.0  T
   5   -109.0536208 -0.230508E-03  0.188E-02    0.61       1.0  T
   6   -109.0536570 -0.362394E-04  0.538E-03    0.60       2.4  T
   7   -109.0536575 -0.458717E-06  0.253E-03    0.60       5.0  T
   8   -109.0536577 -0.190448E-06  0.857E-04    0.60      14.8  T
   9   -109.0536577 -0.424242E-07  0.274E-04    0.60      46.3  T
     SCC iter.                  ...        0 min,  0.036 sec
     gradient                   ...        0 min,  0.036 sec
 * total energy  :  -107.1357416 Eh     change       -0.4516276E-02 Eh
   gradient norm :     0.0191364 Eh/α   predicted    -0.4294728E-02 (  -4.91%)
   displ. norm   :     0.7796051 α      lambda       -0.5066661E-02
   maximum displ.:     0.4426797 α      in ANC's #7, #5, #10, ...

........................................................................
.............................. CYCLE   12 ..............................
........................................................................

 iter      E             dE          RMSdq      gap      omega  full diag
   1   -109.0643025 -0.109064E+03  0.231E-01    0.58       0.0  T
   2   -109.0637499  0.552592E-03  0.152E-01    0.56       1.0  T
   3   -109.0550561  0.869379E-02  0.285E-01    0.66       1.0  T
   4   -109.0643528 -0.929666E-02  0.341E-02    0.57       1.0  T
   5   -109.0644378 -0.850970E-04  0.118E-02    0.58       1.1  T
   6   -109.0644518 -0.139871E-04  0.363E-03    0.57       3.5  T
   7   -109.0644519 -0.765892E-07  0.202E-03    0.57       6.3  T
   8   -109.0644521 -0.192422E-06  0.633E-04    0.57      20.1  T
   9   -109.0644521 -0.253195E-07  0.226E-04    0.57      56.3  T
     SCC iter.                  ...        0 min,  0.048 sec
     gradient                   ...        0 min,  0.035 sec
 * total energy  :  -107.1397973 Eh     change       -0.4055695E-02 Eh
   gradient norm :     0.0209691 Eh/α   predicted    -0.4073060E-02 (   0.43%)
   displ. norm   :     0.7810701 α      lambda       -0.4556961E-02
   maximum displ.:     0.4226829 α      in ANC's #7, #5, #12, ...

........................................................................
.............................. CYCLE   13 ..............................
........................................................................

 iter      E             dE          RMSdq      gap      omega  full diag
   1   -109.0679526 -0.109068E+03  0.243E-01    0.56       0.0  T
   2   -109.0637301  0.422250E-02  0.228E-01    0.52       1.0  T
   3   -109.0614386  0.229154E-02  0.267E-01    0.63       1.0  T
   4   -109.0681155 -0.667689E-02  0.536E-02    0.57       1.0  T
   5   -109.0683911 -0.275659E-03  0.172E-02    0.56       1.0  T
   6   -109.0684210 -0.298415E-04  0.577E-03    0.56       2.2  T
   7   -109.0684219 -0.962254E-06  0.258E-03    0.56       4.9  T
   8   -109.0684222 -0.267100E-06  0.760E-04    0.55      16.7  T
   9   -109.0684222 -0.278405E-07  0.349E-04    0.55      36.3  T
     SCC iter.                  ...        0 min,  0.040 sec
     gradient                   ...        0 min,  0.035 sec
 * total energy  :  -107.1435825 Eh     change       -0.3785186E-02 Eh
   gradient norm :     0.0198656 Eh/α   predicted    -0.3668528E-02 (  -3.08%)
   displ. norm   :     0.7713351 α      lambda       -0.4334031E-02
   maximum displ.:     0.4178616 α      in ANC's #7, #5, #10, ...

........................................................................
.............................. CYCLE   14 ..............................
........................................................................

 iter      E             dE          RMSdq      gap      omega  full diag
   1   -109.0707855 -0.109071E+03  0.194E-01    0.55       0.0  T
   2   -109.0699295  0.856054E-03  0.142E-01    0.53       1.0  T
   3   -109.0640865  0.584301E-02  0.246E-01    0.62       1.0  T
   4   -109.0708308 -0.674435E-02  0.267E-02    0.56       1.0  T
   5   -109.0708928 -0.619958E-04  0.965E-03    0.55       1.3  T
   6   -109.0709034 -0.105471E-04  0.286E-03    0.55       4.4  T
   7   -109.0709036 -0.240374E-06  0.147E-03    0.55       8.6  T
   8   -109.0709037 -0.657016E-07  0.446E-04    0.55      28.5  T
   9   -109.0709037 -0.809449E-08  0.181E-04    0.55      70.2  T
     SCC iter.                  ...        0 min,  0.043 sec
     gradient                   ...        0 min,  0.035 sec
 * total energy  :  -107.1469484 Eh     change       -0.3365984E-02 Eh
   gradient norm :     0.0239596 Eh/α   predicted    -0.3456306E-02 (   2.68%)
   displ. norm   :     0.7628591 α      lambda       -0.4100872E-02
   maximum displ.:     0.3956278 α      in ANC's #7, #5, #12, ...

........................................................................
.............................. CYCLE   15 ..............................
........................................................................

 iter      E             dE          RMSdq      gap      omega  full diag
   1   -109.0655790 -0.109066E+03  0.216E-01    0.54       0.0  T
   2   -109.0648100  0.768971E-03  0.149E-01    0.52       1.0  T
   3   -109.0562291  0.858090E-02  0.288E-01    0.62       1.0  T
   4   -109.0656050 -0.937583E-02  0.307E-02    0.54       1.0  T
   5   -109.0656795 -0.745431E-04  0.110E-02    0.54       1.2  T
   6   -109.0656908 -0.112902E-04  0.322E-03    0.53       3.9  T
   7   -109.0656910 -0.197867E-06  0.178E-03    0.53       7.1  T
   8   -109.0656911 -0.146954E-06  0.610E-04    0.53      20.8  T
   9   -109.0656912 -0.310897E-07  0.175E-04    0.53      72.6  T
     SCC iter.                  ...        0 min,  0.041 sec
     gradient                   ...        0 min,  0.035 sec
 * total energy  :  -107.1499106 Eh     change       -0.2962173E-02 Eh
   gradient norm :     0.0219465 Eh/α   predicted    -0.3243712E-02 (   9.50%)
   displ. norm   :     0.7131225 α      lambda       -0.3439501E-02
   maximum displ.:     0.3595455 α      in ANC's #5, #7, #2, ...

........................................................................
.............................. CYCLE   16 ..............................
........................................................................

 iter      E             dE          RMSdq      gap      omega  full diag
   1   -109.0682755 -0.109068E+03  0.203E-01    0.53       0.0  T
   2   -109.0650686  0.320693E-02  0.198E-01    0.49       1.0  T
   3   -109.0632244  0.184416E-02  0.232E-01    0.59       1.0  T
   4   -109.0683424 -0.511799E-02  0.432E-02    0.54       1.0  T
   5   -109.0685362 -0.193774E-03  0.145E-02    0.53       1.0  T
   6   -109.0685553 -0.191091E-04  0.545E-03    0.52       2.3  T
   7   -109.0685571 -0.187591E-05  0.202E-03    0.52       6.3  T
   8   -109.0685573 -0.189829E-06  0.676E-04    0.52      18.8  T
   9   -109.0685574 -0.316934E-07  0.311E-04    0.52      40.8  T
     SCC iter.                  ...        0 min,  0.037 sec
     gradient                   ...        0 min,  0.036 sec
 * total energy  :  -107.1519563 Eh     change       -0.2045709E-02 Eh
   gradient norm :     0.0271085 Eh/α   predicted    -0.2594322E-02 (  26.82%)
   displ. norm   :     0.6245823 α      lambda       -0.3243343E-02
   maximum displ.:     0.3230557 α      in ANC's #7, #5, #2, ...

........................................................................
.............................. CYCLE   17 ..............................
........................................................................

 iter      E             dE          RMSdq      gap      omega  full diag
   1   -109.0727178 -0.109073E+03  0.167E-01    0.53       0.0  T
   2   -109.0712120  0.150580E-02  0.152E-01    0.50       1.0  T
   3   -109.0689188  0.229317E-02  0.193E-01    0.58       1.0  T
   4   -109.0727931 -0.387425E-02  0.287E-02    0.53       1.0  T
   5   -109.0728656 -0.725391E-04  0.897E-03    0.52       1.4  T
   6   -109.0728737 -0.806727E-05  0.265E-03    0.52       4.8  T
   7   -109.0728738 -0.935992E-07  0.142E-03    0.52       8.9  T
   8   -109.0728738 -0.532644E-07  0.429E-04    0.52      29.6  T
   9   -109.0728738 -0.780722E-08  0.172E-04    0.52      73.9  T
     SCC iter.                  ...        0 min,  0.041 sec
     gradient                   ...        0 min,  0.036 sec
 * total energy  :  -107.1539443 Eh     change       -0.1987971E-02 Eh
   gradient norm :     0.0225362 Eh/α   predicted    -0.2254296E-02 (  13.40%)
   displ. norm   :     0.5839979 α      lambda       -0.2802914E-02
   maximum displ.:     0.3330930 α      in ANC's #5, #7, #2, ...

........................................................................
.............................. CYCLE   18 ..............................
........................................................................

 iter      E             dE          RMSdq      gap      omega  full diag
   1   -109.0750704 -0.109075E+03  0.165E-01    0.51       0.0  T
   2   -109.0750211  0.493162E-04  0.101E-01    0.51       1.0  T
   3   -109.0720523  0.296877E-02  0.161E-01    0.55       1.0  T
   4   -109.0747944 -0.274201E-02  0.519E-02    0.50       1.0  T
   5   -109.0751154 -0.321033E-03  0.561E-03    0.51       2.3  T
   6   -109.0751171 -0.168430E-05  0.276E-03    0.51       4.6  T
   7   -109.0751173 -0.211806E-06  0.119E-03    0.51      10.7  T
   8   -109.0751173 -0.325598E-07  0.615E-04    0.51      20.7  T
   9   -109.0751174 -0.391679E-07  0.188E-04    0.51      67.6  T
     SCC iter.                  ...        0 min,  0.036 sec
     gradient                   ...        0 min,  0.039 sec
 * total energy  :  -107.1554688 Eh     change       -0.1524545E-02 Eh
   gradient norm :     0.0232900 Eh/α   predicted    -0.1879432E-02 (  23.28%)
   displ. norm   :     0.6232251 α      lambda       -0.2243347E-02
   maximum displ.:     0.3062872 α      in ANC's #7, #5, #4, ...

........................................................................
.............................. CYCLE   19 ..............................
........................................................................

 iter      E             dE          RMSdq      gap      omega  full diag
   1   -109.0670881 -0.109067E+03  0.174E-01    0.50       0.0  T
   2   -109.0638380  0.325016E-02  0.192E-01    0.46       1.0  T
   3   -109.0638507 -0.127170E-04  0.192E-01    0.55       1.0  T
   4   -109.0672883 -0.343762E-02  0.377E-02    0.50       1.0  T
   5   -109.0673840 -0.957387E-04  0.145E-02    0.50       1.0  T
   6   -109.0674054 -0.213295E-04  0.387E-03    0.50       3.3  T
   7   -109.0674059 -0.524078E-06  0.207E-03    0.50       6.1  T
   8   -109.0674060 -0.143421E-06  0.645E-04    0.50      19.7  T
   9   -109.0674061 -0.325997E-07  0.193E-04    0.50      66.0  T
     SCC iter.                  ...        0 min,  0.036 sec
     gradient                   ...        0 min,  0.037 sec
 * total energy  :  -107.1566735 Eh     change       -0.1204660E-02 Eh
   gradient norm :     0.0243423 Eh/α   predicted    -0.1557346E-02 (  29.28%)
   displ. norm   :     0.5058201 α      lambda       -0.2746267E-02
   maximum displ.:     0.2469037 α      in ANC's #5, #2, #3, ...

........................................................................
.............................. CYCLE   20 ..............................
........................................................................

 iter      E             dE          RMSdq      gap      omega  full diag
   1   -109.0982659 -0.109098E+03  0.187E-01    0.50       0.0  T
   2   -109.0964189  0.184699E-02  0.168E-01    0.47       1.0  T
   3   -109.0931397  0.327917E-02  0.223E-01    0.57       1.0  T
   4   -109.0984378 -0.529813E-02  0.427E-02    0.51       1.0  T
   5   -109.0985244 -0.865180E-04  0.963E-03    0.50       1.3  T
   6   -109.0985302 -0.584409E-05  0.359E-03    0.50       3.5  T
   7   -109.0985304 -0.204741E-06  0.224E-03    0.50       5.7  T
   8   -109.0985307 -0.311681E-06  0.516E-04    0.50      24.6  T
   9   -109.0985307 -0.174290E-07  0.212E-04    0.50      59.9  T
     SCC iter.                  ...        0 min,  0.039 sec
     gradient                   ...        0 min,  0.035 sec
 * total energy  :  -107.1567957 Eh     change       -0.1222392E-03 Eh
   gradient norm :     0.0325266 Eh/α   predicted    -0.1724461E-02 (1310.73%)
   displ. norm   :     0.3919628 α      lambda       -0.3333708E-02
   maximum displ.:     0.2180770 α      in ANC's #7, #5, #4, ...
 * RMSD in coord.:     1.2945224 α      energy gain  -0.2247365E+00 Eh

generating ANC from exact Hessian ...
Using Lindh-Hessian (1995)
 Shifting diagonal of input Hessian by    9.9030642867995091E-003
 Lowest  eigenvalues of input Hessian
    0.000000    0.000000    0.000000    0.000000    0.000000    0.000000
    0.010000    0.010044    0.010121    0.010421    0.010803    0.011076
    0.011203    0.011530    0.011638    0.012133    0.012960    0.013897
 Highest eigenvalues
    2.112698    2.144904    2.204718    2.228449    2.320929    2.645806


........................................................................
.............................. CYCLE   21 ..............................
........................................................................

 iter      E             dE          RMSdq      gap      omega  full diag
   1   -109.0794163 -0.109079E+03  0.145E-01    0.50       0.0  T
   2   -109.0791725  0.243804E-03  0.968E-02    0.48       1.0  T
   3   -109.0750337  0.413882E-02  0.200E-01    0.56       1.0  T
   4   -109.0794236 -0.438992E-02  0.265E-02    0.49       1.0  T
   5   -109.0794775 -0.539616E-04  0.849E-03    0.50       1.5  T
   6   -109.0794831 -0.551820E-05  0.336E-03    0.49       3.8  T
   7   -109.0794836 -0.554237E-06  0.157E-03    0.49       8.1  T
   8   -109.0794837 -0.111352E-06  0.379E-04    0.49      33.6  T
   9   -109.0794837 -0.130138E-07  0.148E-04    0.49      85.9  T
     SCC iter.                  ...        0 min,  0.037 sec
     gradient                   ...        0 min,  0.036 sec
 * total energy  :  -107.1581485 Eh     change       -0.1352762E-02 Eh
   gradient norm :     0.0239109 Eh/α   predicted     0.0000000E+00 (-100.00%)
   displ. norm   :     0.1740226 α      lambda       -0.1206698E-02
   maximum displ.:     0.0942777 α      in ANC's #8, #7, #4, ...

........................................................................
.............................. CYCLE   22 ..............................
........................................................................

 iter      E             dE          RMSdq      gap      omega  full diag
   1   -109.0837564 -0.109084E+03  0.672E-02    0.49       0.0  T
   2   -109.0836965  0.599288E-04  0.459E-02    0.50       1.0  T
   3   -109.0822444  0.145207E-02  0.113E-01    0.47       1.0  T
   4   -109.0837533 -0.150888E-02  0.125E-02    0.49       1.0  T
   5   -109.0837680 -0.146896E-04  0.248E-03    0.50       5.1  T
   6   -109.0837684 -0.462024E-06  0.114E-03    0.50      11.2  T
   7   -109.0837685 -0.237903E-07  0.544E-04    0.50      23.3  T
   8   -109.0837685 -0.100475E-07  0.249E-04    0.50      51.0  T
     SCC iter.                  ...        0 min,  0.033 sec
     gradient                   ...        0 min,  0.035 sec
 * total energy  :  -107.1589861 Eh     change       -0.8376258E-03 Eh
   gradient norm :     0.0075345 Eh/α   predicted    -0.6216805E-03 ( -25.78%)
   displ. norm   :     0.3051820 α      lambda       -0.8029360E-03
   maximum displ.:     0.1663917 α      in ANC's #8, #2, #3, ...

........................................................................
.............................. CYCLE   23 ..............................
........................................................................

 iter      E             dE          RMSdq      gap      omega  full diag
   1   -109.0872241 -0.109087E+03  0.140E-01    0.50       0.0  T
   2   -109.0871463  0.778253E-04  0.833E-02    0.51       1.0  T
   3   -109.0812612  0.588513E-02  0.221E-01    0.45       1.0  T
   4   -109.0872423 -0.598114E-02  0.127E-02    0.50       1.0  T
   5   -109.0872561 -0.138195E-04  0.424E-03    0.50       3.0  T
   6   -109.0872570 -0.885747E-06  0.202E-03    0.50       6.3  T
   7   -109.0872571 -0.105189E-06  0.100E-03    0.50      12.7  T
   8   -109.0872572 -0.782522E-07  0.325E-04    0.50      39.0  T
   9   -109.0872572 -0.934270E-08  0.992E-05    0.50     128.0  T
     SCC iter.                  ...        0 min,  0.040 sec
     gradient                   ...        0 min,  0.035 sec
 * total energy  :  -107.1593113 Eh     change       -0.3252153E-03 Eh
   gradient norm :     0.0125168 Eh/α   predicted    -0.4388596E-03 (  34.94%)
   displ. norm   :     0.4169113 α      lambda       -0.1129288E-02
   maximum displ.:     0.2541016 α      in ANC's #8, #4, #1, ...

........................................................................
.............................. CYCLE   24 ..............................
........................................................................

 iter      E             dE          RMSdq      gap      omega  full diag
   1   -109.0913618 -0.109091E+03  0.167E-01    0.50       0.0  T
   2   -109.0912788  0.830456E-04  0.989E-02    0.52       1.0  T
   3   -109.0836124  0.766636E-02  0.252E-01    0.45       1.0  T
   4   -109.0913862 -0.777378E-02  0.138E-02    0.51       1.0  T
   5   -109.0914020 -0.158286E-04  0.512E-03    0.51       2.5  T
   6   -109.0914034 -0.141140E-05  0.219E-03    0.51       5.8  T
   7   -109.0914035 -0.841980E-07  0.114E-03    0.51      11.2  T
   8   -109.0914036 -0.109570E-06  0.317E-04    0.51      40.1  T
   9   -109.0914036 -0.725076E-08  0.120E-04    0.51     105.7  T
     SCC iter.                  ...        0 min,  0.041 sec
     gradient                   ...        0 min,  0.034 sec
 * total energy  :  -107.1597231 Eh     change       -0.4117566E-03 Eh
   gradient norm :     0.0194481 Eh/α   predicted    -0.6627879E-03 (  60.97%)
   displ. norm   :     0.1603164 α      lambda       -0.5928350E-03
   maximum displ.:     0.0868346 α      in ANC's #8, #2, #3, ...

........................................................................
.............................. CYCLE   25 ..............................
........................................................................

 iter      E             dE          RMSdq      gap      omega  full diag
   1   -109.0895078 -0.109090E+03  0.549E-02    0.51       0.0  T
   2   -109.0894748  0.330201E-04  0.351E-02    0.50       1.0  T
   3   -109.0886273  0.847526E-03  0.868E-02    0.53       1.0  T
   4   -109.0895113 -0.884080E-03  0.568E-03    0.51       2.2  T
   5   -109.0895140 -0.264335E-05  0.195E-03    0.51       6.5  T
   6   -109.0895141 -0.138263E-06  0.997E-04    0.51      12.7  T
   7   -109.0895142 -0.475126E-07  0.298E-04    0.51      42.6  T
     SCC iter.                  ...        0 min,  0.032 sec
     gradient                   ...        0 min,  0.036 sec
 * total energy  :  -107.1602125 Eh     change       -0.4893741E-03 Eh
   gradient norm :     0.0106266 Eh/α   predicted    -0.3040381E-03 ( -37.87%)
   displ. norm   :     0.5092646 α      lambda       -0.9223977E-03
   maximum displ.:     0.2822418 α      in ANC's #8, #2, #4, ...

........................................................................
.............................. CYCLE   26 ..............................
........................................................................

 iter      E             dE          RMSdq      gap      omega  full diag
   1   -109.0851342 -0.109085E+03  0.131E-01    0.51       0.0  T
   2   -109.0850136  0.120600E-03  0.804E-02    0.50       1.0  T
   3   -109.0809315  0.408208E-02  0.189E-01    0.57       1.0  T
   4   -109.0851435 -0.421206E-02  0.128E-02    0.51       1.0  T
   5   -109.0851586 -0.150556E-04  0.450E-03    0.51       2.8  T
   6   -109.0851594 -0.764809E-06  0.185E-03    0.51       6.9  T
   7   -109.0851594 -0.768553E-08  0.114E-03    0.51      11.1  T
   8   -109.0851595 -0.168824E-06  0.183E-04    0.51      69.4  T
   9   -109.0851595 -0.145107E-09  0.122E-04    0.51     103.9  T
     SCC iter.                  ...        0 min,  0.036 sec
     gradient                   ...        0 min,  0.038 sec
 * total energy  :  -107.1608730 Eh     change       -0.6605622E-03 Eh
   gradient norm :     0.0074770 Eh/α   predicted    -0.5808147E-03 ( -12.07%)
   displ. norm   :     0.5113752 α      lambda       -0.5305301E-03
   maximum displ.:     0.2759852 α      in ANC's #8, #2, #4, ...

........................................................................
.............................. CYCLE   27 ..............................
........................................................................

 iter      E             dE          RMSdq      gap      omega  full diag
   1   -109.0835706 -0.109084E+03  0.105E-01    0.51       0.0  T
   2   -109.0835131  0.574694E-04  0.638E-02    0.50       1.0  T
   3   -109.0809665  0.254664E-02  0.148E-01    0.55       1.0  T
   4   -109.0835755 -0.260901E-02  0.915E-03    0.51       1.4  T
   5   -109.0835825 -0.704603E-05  0.320E-03    0.51       4.0  T
   6   -109.0835829 -0.370310E-06  0.133E-03    0.51       9.6  T
   7   -109.0835829 -0.413387E-07  0.594E-04    0.51      21.4  T
   8   -109.0835830 -0.339241E-07  0.127E-04    0.51     100.1  T
     SCC iter.                  ...        0 min,  0.033 sec
     gradient                   ...        0 min,  0.035 sec
 * total energy  :  -107.1613104 Eh     change       -0.4373558E-03 Eh
   gradient norm :     0.0096894 Eh/α   predicted    -0.3346344E-03 ( -23.49%)
   displ. norm   :     0.5897106 α      lambda       -0.6279122E-03
   maximum displ.:     0.2925531 α      in ANC's #8, #2, #4, ...

........................................................................
.............................. CYCLE   28 ..............................
........................................................................

 iter      E             dE          RMSdq      gap      omega  full diag
   1   -109.0856118 -0.109086E+03  0.115E-01    0.51       0.0  T
   2   -109.0854902  0.121649E-03  0.723E-02    0.50       1.0  T
   3   -109.0820843  0.340586E-02  0.174E-01    0.56       1.0  T
   4   -109.0856159 -0.353161E-02  0.129E-02    0.51       1.0  T
   5   -109.0856310 -0.150225E-04  0.405E-03    0.51       3.1  T
   6   -109.0856319 -0.900746E-06  0.156E-03    0.50       8.1  T
   7   -109.0856319 -0.559261E-07  0.757E-04    0.50      16.8  T
   8   -109.0856320 -0.467029E-07  0.158E-04    0.50      80.3  T
     SCC iter.                  ...        0 min,  0.043 sec
     gradient                   ...        0 min,  0.035 sec
 * total energy  :  -107.1618353 Eh     change       -0.5249207E-03 Eh
   gradient norm :     0.0084755 Eh/α   predicted    -0.4231475E-03 ( -19.39%)
   displ. norm   :     0.6412676 α      lambda       -0.6179846E-03
   maximum displ.:     0.3091608 α      in ANC's #2, #8, #3, ...

........................................................................
.............................. CYCLE   29 ..............................
........................................................................

 iter      E             dE          RMSdq      gap      omega  full diag
   1   -109.0879177 -0.109088E+03  0.125E-01    0.50       0.0  T
   2   -109.0877347  0.182962E-03  0.809E-02    0.49       1.0  T
   3   -109.0836791  0.405565E-02  0.192E-01    0.56       1.0  T
   4   -109.0879224 -0.424335E-02  0.158E-02    0.50       1.0  T
   5   -109.0879450 -0.225619E-04  0.541E-03    0.50       2.3  T
   6   -109.0879472 -0.215182E-05  0.194E-03    0.50       6.5  T
   7   -109.0879473 -0.133493E-06  0.892E-04    0.50      14.2  T
   8   -109.0879474 -0.591660E-07  0.225E-04    0.50      56.4  T
     SCC iter.                  ...        0 min,  0.036 sec
     gradient                   ...        0 min,  0.035 sec
 * total energy  :  -107.1623499 Eh     change       -0.5146315E-03 Eh
   gradient norm :     0.0048100 Eh/α   predicted    -0.4360612E-03 ( -15.27%)
   displ. norm   :     0.6520551 α      lambda       -0.5297931E-03
   maximum displ.:     0.3232624 α      in ANC's #2, #1, #3, ...

........................................................................
.............................. CYCLE   30 ..............................
........................................................................

 iter      E             dE          RMSdq      gap      omega  full diag
   1   -109.0914392 -0.109091E+03  0.129E-01    0.50       0.0  T
   2   -109.0911057  0.333536E-03  0.895E-02    0.48       1.0  T
   3   -109.0870197  0.408597E-02  0.199E-01    0.55       1.0  T
   4   -109.0914449 -0.442521E-02  0.188E-02    0.50       1.0  T
   5   -109.0914770 -0.320522E-04  0.646E-03    0.50       2.0  T
   6   -109.0914806 -0.362451E-05  0.203E-03    0.50       6.3  T
   7   -109.0914807 -0.107982E-06  0.964E-04    0.50      13.2  T
   8   -109.0914808 -0.579943E-07  0.248E-04    0.50      51.2  T
     SCC iter.                  ...        0 min,  0.039 sec
     gradient                   ...        0 min,  0.036 sec
 * total energy  :  -107.1627885 Eh     change       -0.4385155E-03 Eh
   gradient norm :     0.0046223 Eh/α   predicted    -0.3775249E-03 ( -13.91%)
   displ. norm   :     0.7287919 α      lambda       -0.4698389E-03
   maximum displ.:     0.3718277 α      in ANC's #2, #1, #3, ...

........................................................................
.............................. CYCLE   31 ..............................
........................................................................

 iter      E             dE          RMSdq      gap      omega  full diag
   1   -109.0884255 -0.109088E+03  0.148E-01    0.49       0.0  T
   2   -109.0880307  0.394805E-03  0.101E-01    0.48       1.0  T
   3   -109.0825542  0.547648E-02  0.229E-01    0.56       1.0  T
   4   -109.0884273 -0.587310E-02  0.212E-02    0.49       1.0  T
   5   -109.0884683 -0.409938E-04  0.807E-03    0.49       1.6  T
   6   -109.0884741 -0.584226E-05  0.231E-03    0.49       5.5  T
   7   -109.0884743 -0.180923E-06  0.100E-03    0.49      12.7  T
   8   -109.0884744 -0.604372E-07  0.280E-04    0.49      45.3  T
   9   -109.0884744 -0.319213E-08  0.132E-04    0.49      96.3  T
     SCC iter.                  ...        0 min,  0.046 sec
     gradient                   ...        0 min,  0.036 sec
 * total energy  :  -107.1631721 Eh     change       -0.3836100E-03 Eh
   gradient norm :     0.0064752 Eh/α   predicted    -0.3596959E-03 (  -6.23%)
   displ. norm   :     0.6872336 α      lambda       -0.5704569E-03
   maximum displ.:     0.3485180 α      in ANC's #1, #2, #3, ...

........................................................................
.............................. CYCLE   32 ..............................
........................................................................

 iter      E             dE          RMSdq      gap      omega  full diag
   1   -109.0959351 -0.109096E+03  0.152E-01    0.48       0.0  T
   2   -109.0948210  0.111407E-02  0.130E-01    0.46       1.0  T
   3   -109.0912959  0.352515E-02  0.209E-01    0.54       1.0  T
   4   -109.0959524 -0.465659E-02  0.274E-02    0.49       1.0  T
   5   -109.0960227 -0.702796E-04  0.929E-03    0.48       1.4  T
   6   -109.0960314 -0.864434E-05  0.260E-03    0.48       4.9  T
   7   -109.0960315 -0.121811E-06  0.125E-03    0.48      10.2  T
   8   -109.0960316 -0.706784E-07  0.377E-04    0.48      33.7  T
   9   -109.0960316 -0.809172E-08  0.142E-04    0.48      89.6  T
     SCC iter.                  ...        0 min,  0.041 sec
     gradient                   ...        0 min,  0.038 sec
 * total energy  :  -107.1635790 Eh     change       -0.4069400E-03 Eh
   gradient norm :     0.0081203 Eh/α   predicted    -0.4199501E-03 (   3.20%)
   displ. norm   :     0.7257275 α      lambda       -0.4727550E-03
   maximum displ.:     0.3797849 α      in ANC's #1, #2, #3, ...

........................................................................
.............................. CYCLE   33 ..............................
........................................................................

 iter      E             dE          RMSdq      gap      omega  full diag
   1   -109.0924180 -0.109092E+03  0.148E-01    0.47       0.0  T
   2   -109.0918229  0.595022E-03  0.109E-01    0.46       1.0  T
   3   -109.0866760  0.514697E-02  0.228E-01    0.54       1.0  T
   4   -109.0924117 -0.573575E-02  0.239E-02    0.48       1.0  T
   5   -109.0924684 -0.566840E-04  0.761E-03    0.47       1.7  T
   6   -109.0924737 -0.528679E-05  0.225E-03    0.47       5.7  T
   7   -109.0924738 -0.133405E-06  0.965E-04    0.47      13.2  T
   8   -109.0924739 -0.495676E-07  0.275E-04    0.47      46.2  T
     SCC iter.                  ...        0 min,  0.033 sec
     gradient                   ...        0 min,  0.038 sec
 * total energy  :  -107.1639593 Eh     change       -0.3803231E-03 Eh
   gradient norm :     0.0070169 Eh/α   predicted    -0.3608766E-03 (  -5.11%)
   displ. norm   :     0.6525663 α      lambda       -0.4813920E-03
   maximum displ.:     0.3482976 α      in ANC's #1, #2, #3, ...

........................................................................
.............................. CYCLE   34 ..............................
........................................................................

 iter      E             dE          RMSdq      gap      omega  full diag
   1   -109.0911108 -0.109091E+03  0.146E-01    0.47       0.0  T
   2   -109.0902784  0.832320E-03  0.118E-01    0.45       1.0  T
   3   -109.0861900  0.408844E-02  0.213E-01    0.53       1.0  T
   4   -109.0911198 -0.492981E-02  0.246E-02    0.47       1.0  T
   5   -109.0911755 -0.557133E-04  0.844E-03    0.47       1.5  T
   6   -109.0911825 -0.694534E-05  0.244E-03    0.47       5.2  T
   7   -109.0911826 -0.115620E-06  0.103E-03    0.47      12.3  T
   8   -109.0911826 -0.574683E-07  0.295E-04    0.47      43.0  T
   9   -109.0911826 -0.387136E-08  0.136E-04    0.47      93.0  T
     SCC iter.                  ...        0 min,  0.036 sec
     gradient                   ...        0 min,  0.037 sec
 * total energy  :  -107.1643378 Eh     change       -0.3784288E-03 Eh
   gradient norm :     0.0090045 Eh/α   predicted    -0.3431951E-03 (  -9.31%)
   displ. norm   :     0.6109632 α      lambda       -0.5131402E-03
   maximum displ.:     0.3495574 α      in ANC's #1, #2, #3, ...

........................................................................
.............................. CYCLE   35 ..............................
........................................................................

 iter      E             dE          RMSdq      gap      omega  full diag
   1   -109.0992123 -0.109099E+03  0.135E-01    0.47       0.0  T
   2   -109.0984121  0.800140E-03  0.114E-01    0.45       1.0  T
   3   -109.0953148  0.309737E-02  0.190E-01    0.52       1.0  T
   4   -109.0992284 -0.391366E-02  0.218E-02    0.47       1.0  T
   5   -109.0992701 -0.416892E-04  0.798E-03    0.47       1.6  T
   6   -109.0992770 -0.692610E-05  0.218E-03    0.47       5.8  T
   7   -109.0992771 -0.719425E-07  0.911E-04    0.47      13.9  T
   8   -109.0992772 -0.535944E-07  0.286E-04    0.47      44.4  T
     SCC iter.                  ...        0 min,  0.034 sec
     gradient                   ...        0 min,  0.035 sec
 * total energy  :  -107.1646895 Eh     change       -0.3517140E-03 Eh
   gradient norm :     0.0102543 Eh/α   predicted    -0.3523459E-03 (   0.18%)
   displ. norm   :     0.6959107 α      lambda       -0.4522742E-03
   maximum displ.:     0.3888328 α      in ANC's #1, #2, #3, ...

........................................................................
.............................. CYCLE   36 ..............................
........................................................................

 iter      E             dE          RMSdq      gap      omega  full diag
   1   -109.0917697 -0.109092E+03  0.145E-01    0.46       0.0  T
   2   -109.0917040  0.656698E-04  0.864E-02    0.46       1.0  T
   3   -109.0875835  0.412055E-02  0.188E-01    0.52       1.0  T
   4   -109.0917753 -0.419184E-02  0.130E-02    0.46       1.0  T
   5   -109.0917860 -0.107181E-04  0.529E-03    0.46       2.4  T
   6   -109.0917877 -0.170490E-05  0.212E-03    0.46       6.0  T
   7   -109.0917879 -0.227075E-06  0.788E-04    0.46      16.1  T
   8   -109.0917880 -0.619390E-07  0.184E-04    0.46      68.9  T
     SCC iter.                  ...        0 min,  0.034 sec
     gradient                   ...        0 min,  0.035 sec
 * total energy  :  -107.1650509 Eh     change       -0.3613999E-03 Eh
   gradient norm :     0.0080259 Eh/α   predicted    -0.3356538E-03 (  -7.12%)
   displ. norm   :     0.5791430 α      lambda       -0.5175658E-03
   maximum displ.:     0.3273609 α      in ANC's #1, #2, #3, ...

........................................................................
.............................. CYCLE   37 ..............................
........................................................................

 iter      E             dE          RMSdq      gap      omega  full diag
   1   -109.0938733 -0.109094E+03  0.125E-01    0.46       0.0  T
   2   -109.0937561  0.117202E-03  0.803E-02    0.47       1.0  T
   3   -109.0871181  0.663807E-02  0.236E-01    0.42       1.0  T
   4   -109.0938544 -0.673637E-02  0.188E-02    0.47       1.0  T
   5   -109.0938899 -0.355099E-04  0.552E-03    0.46       2.3  T
   6   -109.0938923 -0.235149E-05  0.209E-03    0.46       6.1  T
   7   -109.0938925 -0.185779E-06  0.754E-04    0.46      16.8  T
   8   -109.0938925 -0.386704E-07  0.226E-04    0.46      56.3  T
     SCC iter.                  ...        0 min,  0.036 sec
     gradient                   ...        0 min,  0.035 sec
 * total energy  :  -107.1654438 Eh     change       -0.3929614E-03 Eh
   gradient norm :     0.0106090 Eh/α   predicted    -0.3455816E-03 ( -12.06%)
   displ. norm   :     0.6758532 α      lambda       -0.5622224E-03
   maximum displ.:     0.4139219 α      in ANC's #1, #2, #3, ...

........................................................................
.............................. CYCLE   38 ..............................
........................................................................

 iter      E             dE          RMSdq      gap      omega  full diag
   1   -109.0917197 -0.109092E+03  0.134E-01    0.46       0.0  T
   2   -109.0916228  0.969455E-04  0.843E-02    0.47       1.0  T
   3   -109.0843926  0.723018E-02  0.245E-01    0.41       1.0  T
   4   -109.0917057 -0.731306E-02  0.163E-02    0.47       1.0  T
   5   -109.0917329 -0.272272E-04  0.505E-03    0.46       2.5  T
   6   -109.0917348 -0.196544E-05  0.180E-03    0.46       7.0  T
   7   -109.0917350 -0.124302E-06  0.758E-04    0.46      16.7  T
   8   -109.0917350 -0.412242E-07  0.188E-04    0.46      67.6  T
     SCC iter.                  ...        0 min,  0.041 sec
     gradient                   ...        0 min,  0.035 sec
 * total energy  :  -107.1658939 Eh     change       -0.4500550E-03 Eh
   gradient norm :     0.0087833 Eh/α   predicted    -0.4095221E-03 (  -9.01%)
   displ. norm   :     0.6275663 α      lambda       -0.5629670E-03
   maximum displ.:     0.3729704 α      in ANC's #1, #2, #8, ...

........................................................................
.............................. CYCLE   39 ..............................
........................................................................

 iter      E             dE          RMSdq      gap      omega  full diag
   1   -109.0951764 -0.109095E+03  0.136E-01    0.46       0.0  T
   2   -109.0949653  0.211070E-03  0.898E-02    0.47       1.0  T
   3   -109.0862148  0.875057E-02  0.272E-01    0.41       1.0  T
   4   -109.0951687 -0.895396E-02  0.197E-02    0.47       1.0  T
   5   -109.0952002 -0.315043E-04  0.587E-03    0.46       2.2  T
   6   -109.0952027 -0.244286E-05  0.259E-03    0.46       4.9  T
   7   -109.0952031 -0.403267E-06  0.106E-03    0.46      12.0  T
   8   -109.0952031 -0.783830E-07  0.320E-04    0.46      39.7  T
   9   -109.0952032 -0.700850E-08  0.952E-05    0.46     133.4  T
     SCC iter.                  ...        0 min,  0.043 sec
     gradient                   ...        0 min,  0.035 sec
 * total energy  :  -107.1663028 Eh     change       -0.4089202E-03 Eh
   gradient norm :     0.0112053 Eh/α   predicted    -0.3923447E-03 (  -4.05%)
   displ. norm   :     0.7292969 α      lambda       -0.4585695E-03
   maximum displ.:     0.4390847 α      in ANC's #1, #2, #3, ...

........................................................................
.............................. CYCLE   40 ..............................
........................................................................

 iter      E             dE          RMSdq      gap      omega  full diag
   1   -109.0889691 -0.109089E+03  0.147E-01    0.45       0.0  T
   2   -109.0889691 -0.131384E-08  0.856E-02    0.45       1.0  T
   3   -109.0882342  0.734941E-03  0.781E-02    0.44       1.0  T
   4   -109.0889326 -0.698487E-03  0.207E-02    0.46       1.0  T
   5   -109.0889802 -0.475610E-04  0.315E-03    0.45       4.0  T
   6   -109.0889803 -0.113095E-06  0.159E-03    0.45       8.0  T
   7   -109.0889804 -0.108015E-06  0.552E-04    0.45      23.0  T
   8   -109.0889805 -0.267537E-07  0.150E-04    0.45      84.5  T
     SCC iter.                  ...        0 min,  0.032 sec
     gradient                   ...        0 min,  0.038 sec
 * total energy  :  -107.1666506 Eh     change       -0.3477488E-03 Eh
   gradient norm :     0.0076342 Eh/α   predicted    -0.3512367E-03 (   1.00%)
   displ. norm   :     0.5504871 α      lambda       -0.4001709E-03
   maximum displ.:     0.3316517 α      in ANC's #1, #2, #8, ...

........................................................................
.............................. CYCLE   41 ..............................
........................................................................

 iter      E             dE          RMSdq      gap      omega  full diag
   1   -109.0925938 -0.109093E+03  0.117E-01    0.46       0.0  T
   2   -109.0925775  0.162988E-04  0.694E-02    0.46       1.0  T
   3   -109.0903738  0.220364E-02  0.133E-01    0.43       1.0  T
   4   -109.0925847 -0.221085E-02  0.156E-02    0.46       1.0  T
   5   -109.0926034 -0.187412E-04  0.332E-03    0.46       3.8  T
   6   -109.0926039 -0.481593E-06  0.176E-03    0.46       7.2  T
   7   -109.0926040 -0.139561E-06  0.539E-04    0.46      23.6  T
   8   -109.0926040 -0.180033E-07  0.164E-04    0.46      77.4  T
     SCC iter.                  ...        0 min,  0.033 sec
     gradient                   ...        0 min,  0.035 sec
 * total energy  :  -107.1669212 Eh     change       -0.2705903E-03 Eh
   gradient norm :     0.0098337 Eh/α   predicted    -0.2607194E-03 (  -3.65%)
   displ. norm   :     0.7353024 α      lambda       -0.4374236E-03
   maximum displ.:     0.4641780 α      in ANC's #1, #2, #3, ...

........................................................................
.............................. CYCLE   42 ..............................
........................................................................

 iter      E             dE          RMSdq      gap      omega  full diag
   1   -109.0860306 -0.109086E+03  0.146E-01    0.45       0.0  T
   2   -109.0858126  0.218020E-03  0.949E-02    0.44       1.0  T
   3   -109.0796319  0.618068E-02  0.232E-01    0.52       1.0  T
   4   -109.0860040 -0.637207E-02  0.202E-02    0.46       1.0  T
   5   -109.0860545 -0.505248E-04  0.475E-03    0.45       2.7  T
   6   -109.0860560 -0.150257E-05  0.187E-03    0.45       6.8  T
   7   -109.0860560 -0.361666E-10  0.107E-03    0.45      11.9  T
   8   -109.0860562 -0.120522E-06  0.228E-04    0.45      55.7  T
   9   -109.0860562 -0.327653E-08  0.884E-05    0.45     143.7  T
     SCC iter.                  ...        0 min,  0.039 sec
     gradient                   ...        0 min,  0.035 sec
 * total energy  :  -107.1671381 Eh     change       -0.2169060E-03 Eh
   gradient norm :     0.0108931 Eh/α   predicted    -0.3369647E-03 (  55.35%)
   displ. norm   :     0.3470808 α      lambda       -0.3397675E-03
   maximum displ.:     0.2137276 α      in ANC's #1, #2, #8, ...
 * RMSD in coord.:     1.3033242 α      energy gain  -0.1034232E-01 Eh

generating ANC from exact Hessian ...
Using Lindh-Hessian (1995)
 Shifting diagonal of input Hessian by    9.8984687748597758E-003
 Lowest  eigenvalues of input Hessian
    0.000000    0.000000    0.000000    0.000000    0.000000    0.000000
    0.010000    0.010082    0.010156    0.010358    0.010716    0.011076
    0.011196    0.011547    0.011716    0.011979    0.013253    0.013736
 Highest eigenvalues
    2.115149    2.148486    2.206747    2.228251    2.324515    2.636377


........................................................................
.............................. CYCLE   43 ..............................
........................................................................

 iter      E             dE          RMSdq      gap      omega  full diag
   1   -109.0933183 -0.109093E+03  0.729E-02    0.45       0.0  T
   2   -109.0930380  0.280243E-03  0.643E-02    0.43       1.0  T
   3   -109.0921685  0.869474E-03  0.103E-01    0.47       1.0  T
   4   -109.0933294 -0.116088E-02  0.109E-02    0.45       1.2  T
   5   -109.0933417 -0.122568E-04  0.280E-03    0.45       4.5  T
   6   -109.0933422 -0.510669E-06  0.105E-03    0.45      12.1  T
   7   -109.0933422 -0.122492E-07  0.493E-04    0.45      25.8  T
   8   -109.0933422 -0.105438E-07  0.154E-04    0.45      82.3  T
     SCC iter.                  ...        0 min,  0.039 sec
     gradient                   ...        0 min,  0.040 sec
 * total energy  :  -107.1673536 Eh     change       -0.2155044E-03 Eh
   gradient norm :     0.0079462 Eh/α   predicted     0.0000000E+00 (-100.00%)
   displ. norm   :     0.0689532 α      lambda       -0.1627079E-03
   maximum displ.:     0.0338066 α      in ANC's #2, #1, #13, ...

........................................................................
.............................. CYCLE   44 ..............................
........................................................................

 iter      E             dE          RMSdq      gap      omega  full diag
   1   -109.0966949 -0.109097E+03  0.531E-02    0.45       0.0  T
   2   -109.0966620  0.329340E-04  0.343E-02    0.44       1.0  T
   3   -109.0958316  0.830376E-03  0.862E-02    0.47       1.0  T
   4   -109.0966964 -0.864809E-03  0.675E-03    0.45       1.9  T
   5   -109.0967011 -0.462925E-05  0.197E-03    0.45       6.4  T
   6   -109.0967014 -0.332256E-06  0.762E-04    0.45      16.7  T
   7   -109.0967014 -0.133441E-07  0.293E-04    0.45      43.4  T
     SCC iter.                  ...        0 min,  0.031 sec
     gradient                   ...        0 min,  0.035 sec
 * total energy  :  -107.1674337 Eh     change       -0.8014581E-04 Eh
   gradient norm :     0.0043736 Eh/α   predicted    -0.8174094E-04 (   1.99%)
   displ. norm   :     0.1574768 α      lambda       -0.2630000E-03
   maximum displ.:     0.0948194 α      in ANC's #1, #3, #7, ...

........................................................................
.............................. CYCLE   45 ..............................
........................................................................

 iter      E             dE          RMSdq      gap      omega  full diag
   1   -109.1031425 -0.109103E+03  0.109E-01    0.45       0.0  T
   2   -109.1029716  0.170925E-03  0.723E-02    0.44       1.0  T
   3   -109.0998098  0.316184E-02  0.170E-01    0.50       1.0  T
   4   -109.1031591 -0.334932E-02  0.123E-02    0.45       1.0  T
   5   -109.1031693 -0.102125E-04  0.530E-03    0.45       2.4  T
   6   -109.1031721 -0.282233E-05  0.155E-03    0.45       8.2  T
   7   -109.1031722 -0.137897E-07  0.828E-04    0.45      15.3  T
   8   -109.1031722 -0.605618E-07  0.202E-04    0.45      62.8  T
     SCC iter.                  ...        0 min,  0.036 sec
     gradient                   ...        0 min,  0.035 sec
 * total energy  :  -107.1674167 Eh     change        0.1700895E-04 Eh
   gradient norm :     0.0079571 Eh/α   predicted    -0.1347614E-03 (-892.30%)
   displ. norm   :     0.0473140 α      lambda       -0.2101525E-03
   maximum displ.:     0.0249388 α      in ANC's #2, #6, #29, ...

........................................................................
.............................. CYCLE   46 ..............................
........................................................................

 iter      E             dE          RMSdq      gap      omega  full diag
   1   -109.1000853 -0.109100E+03  0.535E-02    0.45       0.0  T
   2   -109.1000863 -0.100734E-05  0.301E-02    0.45       1.0  T
   3   -109.0999610  0.125297E-03  0.339E-02    0.44       1.0  T
   4   -109.1000722 -0.111186E-03  0.115E-02    0.45       1.1  T
   5   -109.1000891 -0.169455E-04  0.141E-03    0.45       9.0  T
   6   -109.1000892 -0.818033E-07  0.721E-04    0.45      17.6  T
   7   -109.1000892 -0.173782E-07  0.230E-04    0.45      55.1  T
     SCC iter.                  ...        0 min,  0.029 sec
     gradient                   ...        0 min,  0.036 sec
 * total energy  :  -107.1675423 Eh     change       -0.1256361E-03 Eh
   gradient norm :     0.0026580 Eh/α   predicted    -0.1053119E-03 ( -16.18%)
   displ. norm   :     0.0804270 α      lambda       -0.5406982E-04
   maximum displ.:     0.0535662 α      in ANC's #1, #2, #3, ...

........................................................................
.............................. CYCLE   47 ..............................
........................................................................

 iter      E             dE          RMSdq      gap      omega  full diag
   1   -109.0986852 -0.109099E+03  0.219E-02    0.44       0.0  T
   2   -109.0986517  0.335432E-04  0.211E-02    0.44       1.0  T
   3   -109.0985955  0.561287E-04  0.290E-02    0.45       1.0  T
   4   -109.0986873 -0.917102E-04  0.260E-03    0.44       4.9  T
   5   -109.0986880 -0.746851E-06  0.615E-04    0.44      20.7  T
   6   -109.0986880 -0.941466E-08  0.337E-04    0.44      37.7  T
     SCC iter.                  ...        0 min,  0.032 sec
     gradient                   ...        0 min,  0.045 sec
 * total energy  :  -107.1675884 Eh     change       -0.4604725E-04 Eh
   gradient norm :     0.0012624 Eh/α   predicted    -0.2721110E-04 ( -40.91%)
   displ. norm   :     0.3633122 α      lambda       -0.1178677E-03
   maximum displ.:     0.2354150 α      in ANC's #1, #3, #2, ...

   *** GEOMETRY OPTIMIZATION CONVERGED AFTER 47 ITERATIONS ***

------------------------------------------------------------------------
 total energy gain   :        -0.2355292 Eh     -147.7968 kcal/mol
 total RMSD          :         2.0967493 a0        1.1096 Å
 total power (kW/mol):       -13.1570593 (step) -150.9745 (real)
------------------------------------------------------------------------

 ANCopt (total)                0 d,  0 h,  0 min,  4.096 sec
 optimizer setup                ...        0 min,  0.000 sec (  0.003%)
 model hessian                  ...        0 min,  0.030 sec (  0.733%)
 ANC generation                 ...        0 min,  0.007 sec (  0.169%)
 coordinate transformation      ...        0 min,  0.002 sec (  0.038%)
 single point calculation       ...        0 min,  4.037 sec ( 98.566%)
 optimization log               ...        0 min,  0.010 sec (  0.250%)
 hessian update                 ...        0 min,  0.001 sec (  0.030%)
 rational function              ...        0 min,  0.007 sec (  0.170%)

================
 final structure:
================
 xtb: 6.7.1 (edcfbbe)
          08252607103D

 62 70  0     0  0            999 V2000
    4.1362    6.2386    4.7396 H   0  0  0  0  0  0  0  0  0  0  0  0
    0.2279    0.0853   -0.8905 C   0  0  0  0  0  0  0  0  0  0  0  0
   -2.5725    4.9029    0.6127 H   0  0  0  0  0  0  0  0  0  0  0  0
   -1.2113   -3.9231   -3.5073 N   0  0  0  0  0  0  0  0  0  0  0  0
   -3.2498   -4.4887   -5.0058 H   0  0  0  0  0  0  0  0  0  0  0  0
    1.3247    2.7009    3.5549 C   0  0  0  0  0  0  0  0  0  0  0  0
   -3.0573   -6.6255   -5.0680 C   0  0  0  0  0  0  0  0  0  0  0  0
    0.5882   -3.2571   -0.2567 H   0  0  0  0  0  0  0  0  0  0  0  0
   -0.6062   -0.0242   -6.0558 H   0  0  0  0  0  0  0  0  0  0  0  0
    1.1253   -1.8436    1.7439 H   0  0  0  0  0  0  0  0  0  0  0  0
   -0.4102    5.0878    4.4753 C   0  0  0  0  0  0  0  0  0  0  0  0
    0.0959    1.2498   -0.2784 N   0  0  0  0  0  0  0  0  0  0  0  0
    2.6164    4.9067    3.8427 C   0  0  0  0  0  0  0  0  0  0  0  0
   -1.5353    6.8325    5.2012 H   0  0  0  0  0  0  0  0  0  0  0  0
   -0.2938   -1.2568   -4.3285 C   0  0  0  0  0  0  0  0  0  0  0  0
    3.1633    2.2985    5.7891 H   0  0  0  0  0  0  0  0  0  0  0  0
   -1.3557    6.1208    4.4146 C   0  0  0  0  0  0  0  0  0  0  0  0
    3.9060    4.2743    5.5262 N   0  0  0  0  0  0  0  0  0  0  0  0
    3.6141    5.3045    4.6796 C   0  0  0  0  0  0  0  0  0  0  0  0
   -2.0137    6.0824    3.1994 C   0  0  0  0  0  0  0  0  0  0  0  0
    0.2195    4.8718    5.3187 H   0  0  0  0  0  0  0  0  0  0  0  0
   -0.4240   -8.7104   -3.4856 C   0  0  0  0  0  0  0  0  0  0  0  0
    0.1574   -9.6439   -3.1637 N   0  0  0  0  0  0  0  0  0  0  0  0
   -1.1743    3.2943    0.8176 C   0  0  0  0  0  0  0  0  0  0  0  0
   -2.3117   -7.7388   -4.6591 C   0  0  0  0  0  0  0  0  0  0  0  0
   -0.2272    2.6223    1.5939 C   0  0  0  0  0  0  0  0  0  0  0  0
   -1.8156    4.4513    1.2388 C   0  0  0  0  0  0  0  0  0  0  0  0
    0.7545    0.2653    1.7985 C   0  0  0  0  0  0  0  0  0  0  0  0
   -0.1598    1.1569   -3.0951 C   0  0  0  0  0  0  0  0  0  0  0  0
    0.2048    3.2194    2.8264 C   0  0  0  0  0  0  0  0  0  0  0  0
   -0.1021    2.1299   -2.6271 H   0  0  0  0  0  0  0  0  0  0  0  0
   -0.3703    1.1315   -4.3873 N   0  0  0  0  0  0  0  0  0  0  0  0
    1.1041    0.3589    3.1785 C   0  0  0  0  0  0  0  0  0  0  0  0
   -1.4286    2.8652   -0.1383 H   0  0  0  0  0  0  0  0  0  0  0  0
    1.4706    1.4163    3.8078 N   0  0  0  0  0  0  0  0  0  0  0  0
    1.5768   -4.7721   -1.8524 H   0  0  0  0  0  0  0  0  0  0  0  0
    0.4436   -2.3620   -0.8470 C   0  0  0  0  0  0  0  0  0  0  0  0
    2.1633    5.4828    3.0625 H   0  0  0  0  0  0  0  0  0  0  0  0
    1.1744   -0.5663    3.7416 H   0  0  0  0  0  0  0  0  0  0  0  0
    0.3638   -6.1065   -2.7817 N   0  0  0  0  0  0  0  0  0  0  0  0
    0.8276   -0.9760    1.1698 C   0  0  0  0  0  0  0  0  0  0  0  0
    0.5196   -1.1124   -0.1805 C   0  0  0  0  0  0  0  0  0  0  0  0
   -0.0722   -1.2524   -2.9439 C   0  0  0  0  0  0  0  0  0  0  0  0
    2.2807    3.5698    4.1949 C   0  0  0  0  0  0  0  0  0  0  0  0
    0.1040   -2.4521   -2.1654 C   0  0  0  0  0  0  0  0  0  0  0  0
    0.6578   -4.8959   -2.4095 C   0  0  0  0  0  0  0  0  0  0  0  0
   -0.3568   -2.1884   -4.8669 H   0  0  0  0  0  0  0  0  0  0  0  0
   -0.7580   -6.2823   -3.5101 C   0  0  0  0  0  0  0  0  0  0  0  0
   -1.5048    4.9844    2.4691 C   0  0  0  0  0  0  0  0  0  0  0  0
    3.1199    3.2160    5.2382 C   0  0  0  0  0  0  0  0  0  0  0  0
    4.5970    4.3032    6.2578 H   0  0  0  0  0  0  0  0  0  0  0  0
   -1.5361   -5.1641   -3.9143 C   0  0  0  0  0  0  0  0  0  0  0  0
   -1.1732   -7.5831   -3.8946 C   0  0  0  0  0  0  0  0  0  0  0  0
    0.0060    0.0063   -2.3074 C   0  0  0  0  0  0  0  0  0  0  0  0
   -0.4655    4.3675    3.2757 C   0  0  0  0  0  0  0  0  0  0  0  0
   -2.6824   -5.3578   -4.7116 C   0  0  0  0  0  0  0  0  0  0  0  0
   -0.4349   -0.0568   -4.9879 C   0  0  0  0  0  0  0  0  0  0  0  0
   -3.9425   -6.7810   -5.6662 H   0  0  0  0  0  0  0  0  0  0  0  0
   -2.7840    6.7516    2.8634 H   0  0  0  0  0  0  0  0  0  0  0  0
   -0.1583   -3.7756   -2.7343 C   0  0  0  0  0  0  0  0  0  0  0  0
    0.2734    1.3787    1.0308 C   0  0  0  0  0  0  0  0  0  0  0  0
   -2.6287   -8.7317   -4.9425 H   0  0  0  0  0  0  0  0  0  0  0  0
  1 19  1  0  0  0  0
  2 12  4  0  0  0  0
  2 42  4  0  0  0  0
  2 54  4  0  0  0  0
  3 27  1  0  0  0  0
  4 52  4  0  0  0  0
  4 60  4  0  0  0  0
  5 56  1  0  0  0  0
  6 30  4  0  0  0  0
  6 35  4  0  0  0  0
  6 44  1  0  0  0  0
  7 25  4  0  0  0  0
  7 56  4  0  0  0  0
  7 58  1  0  0  0  0
  8 37  1  0  0  0  0
  9 57  1  0  0  0  0
 10 41  1  0  0  0  0
 11 17  4  0  0  0  0
 11 21  1  0  0  0  0
 11 55  4  0  0  0  0
 12 61  4  0  0  0  0
 13 19  4  0  0  0  0
 13 38  1  0  0  0  0
 13 44  4  0  0  0  0
 14 17  1  0  0  0  0
 15 43  4  0  0  0  0
 15 47  1  0  0  0  0
 15 57  4  0  0  0  0
 16 50  1  0  0  0  0
 17 20  4  0  0  0  0
 18 19  4  0  0  0  0
 18 50  4  0  0  0  0
 18 51  1  0  0  0  0
 20 49  4  0  0  0  0
 20 59  1  0  0  0  0
 22 23  3  0  0  0  0
 22 53  1  0  0  0  0
 24 26  4  0  0  0  0
 24 27  4  0  0  0  0
 24 34  1  0  0  0  0
 25 53  4  0  0  0  0
 25 62  1  0  0  0  0
 26 30  4  0  0  0  0
 26 61  4  0  0  0  0
 27 49  4  0  0  0  0
 28 33  4  0  0  0  0
 28 41  4  0  0  0  0
 28 61  4  0  0  0  0
 29 31  1  0  0  0  0
 29 32  4  0  0  0  0
 29 54  4  0  0  0  0
 30 55  4  0  0  0  0
 32 57  4  0  0  0  0
 33 35  4  0  0  0  0
 33 39  1  0  0  0  0
 36 46  1  0  0  0  0
 37 42  4  0  0  0  0
 37 45  4  0  0  0  0
 40 46  4  0  0  0  0
 40 48  4  0  0  0  0
 41 42  4  0  0  0  0
 43 45  4  0  0  0  0
 43 54  4  0  0  0  0
 44 50  4  0  0  0  0
 45 60  1  0  0  0  0
 46 60  4  0  0  0  0
 48 52  4  0  0  0  0
 48 53  4  0  0  0  0
 49 55  4  0  0  0  0
 52 56  4  0  0  0  0
M  END
$$$$

 Bond Distances (Angstroems)
 ---------------------------
H1-C19=1.0717        C2-N12=1.3222        C2-C42=1.4225        C2-C54=1.4364        H3-C27=1.0811        N4-C52=1.3458        
N4-C60=1.3145        H5-C56=1.0788        C6-C30=1.4331        C6-N35=1.3174        C6-C44=1.4416        C7-C25=1.4009        
C7-C56=1.3691        C7-H58=1.0796        H8-C37=1.0820        H9-C57=1.0820        H10-C41=1.0821       C11-C17=1.4017       
C11-H21=1.0744       C11-C55=1.4003       N12-C2=1.3222        N12-C61=1.3275       C13-C19=1.3616       C13-H38=1.0705       
C13-C44=1.4227       H14-C17=1.0760       C15-C43=1.4022       C15-H47=1.0778       C15-C57=1.3766       H16-C50=1.0710       
C17-C11=1.4017       C17-H14=1.0760       C17-C20=1.3824       N18-C19=1.3650       N18-C50=1.3494       N18-H51=1.0068       
C19-H1=1.0717        C19-C13=1.3616       C19-N18=1.3650       C20-C17=1.3824       C20-C49=1.4135       C20-H59=1.0742       
H21-C11=1.0744       C22-N23=1.1460       C22-C53=1.4139       N23-C22=1.1460       C24-C26=1.3969       C24-C27=1.3883       
C24-H34=1.0782       C25-C7=1.4009        C25-C53=1.3801       C25-H62=1.0801       C26-C24=1.3969       C26-C30=1.4361       
C26-C61=1.4540       C27-H3=1.0811        C27-C24=1.3883       C27-C49=1.3764       C28-C33=1.4266       C28-C41=1.3934       
C28-C61=1.4355       C29-H31=1.0812       C29-N32=1.3094       C29-C54=1.4042       C30-C6=1.4331        C30-C26=1.4361       
C30-C55=1.4033       H31-C29=1.0812       N32-C29=1.3094       N32-C57=1.3330       C33-C28=1.4266       C33-N35=1.2840       
C33-H39=1.0854       H34-C24=1.0782       N35-C6=1.3174        N35-C33=1.2840       H36-C46=1.0817       C37-H8=1.0820        
C37-C42=1.4182       C37-C45=1.3644       H38-C13=1.0705       H39-C33=1.0854       N40-C46=1.3003       N40-C48=1.3491       
C41-H10=1.0821       C41-C28=1.3934       C41-C42=1.3917       C42-C2=1.4225        C42-C37=1.4182       C42-C41=1.3917       
C43-C15=1.4022       C43-C45=1.4409       C43-C54=1.4126       C44-C6=1.4416        C44-C13=1.4227       C44-C50=1.3849       
C45-C37=1.3644       C45-C43=1.4409       C45-C60=1.4643       C46-H36=1.0817       C46-N40=1.3003       C46-C60=1.4236       
H47-C15=1.0778       C48-N40=1.3491       C48-C52=1.4210       C48-C53=1.4186       C49-C20=1.4135       C49-C27=1.3764       
C49-C55=1.4531       C50-H16=1.0710       C50-N18=1.3494       C50-C44=1.3849       H51-N18=1.0068       C52-N4=1.3458        
C52-C48=1.4210       C52-C56=1.4098       C53-C22=1.4139       C53-C25=1.3801       C53-C48=1.4186       C54-C2=1.4364        
C54-C29=1.4042       C54-C43=1.4126       C55-C11=1.4003       C55-C30=1.4033       C55-C49=1.4531       C56-H5=1.0788        
C56-C7=1.3691        C56-C52=1.4098       C57-H9=1.0820        C57-C15=1.3766       C57-N32=1.3330       H58-C7=1.0796        
H59-C20=1.0742       C60-N4=1.3145        C60-C45=1.4643       C60-C46=1.4236       C61-N12=1.3275       C61-C26=1.4540       
C61-C28=1.4355       H62-C25=1.0801       
 C  H  Rav=1.0782 sigma=0.0042  Rmin=1.0705  Rmax=1.0854    18
 C  C  Rav=1.4099 sigma=0.0254  Rmin=1.3616  Rmax=1.4643    38
 N  H  Rav=1.0068 sigma=0.0000  Rmin=1.0068  Rmax=1.0068     1
 N  C  Rav=1.3126 sigma=0.0526  Rmin=1.1460  Rmax=1.3650    13

 selected bond angles (degree)
 --------------------
C42-C2-N12=122.07              C54-C2-N12=119.32              C54-C2-C42=118.54              C60-N4-C52=118.34              
N35-C6-C30=122.47              C44-C6-C30=121.72              C44-C6-N35=115.41              C56-C7-C25=120.94              
H58-C7-C25=118.92              H58-C7-C56=120.13              

 selected dihedral angles (degree)
 ---------------------------------

           -------------------------------------------------
          |                Final Singlepoint                |
           -------------------------------------------------

          ...................................................
          :                      SETUP                      :
          :.................................................:
          :  # basis functions                 191          :
          :  # atomic orbitals                 191          :
          :  # shells                          105          :
          :  # electrons                       198          :
          :  max. iterations                   250          :
          :  Hamiltonian                  GFN2-xTB          :
          :  restarted?                      false          :
          :  GBSA solvation                  false          :
          :  PC potential                    false          :
          :  electronic temp.          300.0000000     K    :
          :  accuracy                    1.0000000          :
          :  -> integral cutoff          0.2500000E+02      :
          :  -> integral neglect         0.1000000E-07      :
          :  -> SCF convergence          0.1000000E-05 Eh   :
          :  -> wf. convergence          0.1000000E-03 e    :
          :  Broyden damping             0.4000000          :
          :  net charge                          0          :
          :  unpaired electrons                  0          :
          ...................................................

 iter      E             dE          RMSdq      gap      omega  full diag
   1   -109.0986880 -0.109099E+03  0.950E-05    0.44       0.0  T
   2   -109.0986880  0.189829E-09  0.921E-05    0.44     138.0  T
   3   -109.0986880 -0.181700E-09  0.715E-05    0.44     177.6  T

   *** convergence criteria satisfied after 3 iterations ***

         #    Occupation            Energy/Eh            Energy/eV
      -------------------------------------------------------------
         1        2.0000           -0.6974433             -18.9784
       ...           ...                  ...                  ...
        93        2.0000           -0.3939431             -10.7197
        94        2.0000           -0.3855987             -10.4927
        95        2.0000           -0.3800570             -10.3419
        96        2.0000           -0.3713462             -10.1048
        97        2.0000           -0.3646698              -9.9232
        98        2.0000           -0.3609557              -9.8221
        99        1.9996           -0.3363288              -9.1520 (HOMO)
       100        0.0004           -0.3200106              -8.7079 (LUMO)
       101        0.0000           -0.3145690              -8.5599
       102                         -0.2935764              -7.9886
       103                         -0.2782380              -7.5712
       104                         -0.2661964              -7.2436
       ...                                ...                  ...
       191                          1.1688045              31.8048
      -------------------------------------------------------------
                  HL-Gap            0.0163182 Eh            0.4440 eV
             Fermi-level           -0.3281712 Eh           -8.9300 eV

 SCC (total)                   0 d,  0 h,  0 min,  0.059 sec
 SCC setup                      ...        0 min,  0.000 sec (  0.517%)
 Dispersion                     ...        0 min,  0.001 sec (  0.879%)
 classical contributions        ...        0 min,  0.000 sec (  0.251%)
 integral evaluation            ...        0 min,  0.010 sec ( 17.088%)
 iterations                     ...        0 min,  0.013 sec ( 21.811%)
 molecular gradient             ...        0 min,  0.035 sec ( 58.732%)
 printout                       ...        0 min,  0.000 sec (  0.707%)

         :::::::::::::::::::::::::::::::::::::::::::::::::::::
         ::                     SUMMARY                     ::
         :::::::::::::::::::::::::::::::::::::::::::::::::::::
         :: total energy            -107.167588386808 Eh    ::
         :: gradient norm              0.001265390035 Eh/a0 ::
         :: HOMO-LUMO gap              0.444041899165 eV    ::
         ::.................................................::
         :: SCC energy              -109.099242783456 Eh    ::
         :: -> isotropic ES            0.047428628183 Eh    ::
         :: -> anisotropic ES          0.010916590406 Eh    ::
         :: -> anisotropic XC          0.090757513949 Eh    ::
         :: -> dispersion             -0.090125203322 Eh    ::
         :: repulsion energy           1.931654396648 Eh    ::
         :: add. restraining           0.000000000000 Eh    ::
         :: total charge              -0.000000000001 e     ::
         :::::::::::::::::::::::::::::::::::::::::::::::::::::

           -------------------------------------------------
          |                Property Printout                |
           -------------------------------------------------

    * Orbital Energies and Occupations

         #    Occupation            Energy/Eh            Energy/eV
      -------------------------------------------------------------
         1        2.0000           -0.6974433             -18.9784
       ...           ...                  ...                  ...
        87        2.0000           -0.4223819             -11.4936
        88        2.0000           -0.4209476             -11.4546
        89        2.0000           -0.4158144             -11.3149
        90        2.0000           -0.4117200             -11.2035
        91        2.0000           -0.4102626             -11.1638
        92        2.0000           -0.4010488             -10.9131
        93        2.0000           -0.3939431             -10.7197
        94        2.0000           -0.3855987             -10.4927
        95        2.0000           -0.3800570             -10.3419
        96        2.0000           -0.3713462             -10.1048
        97        2.0000           -0.3646698              -9.9232
        98        2.0000           -0.3609557              -9.8221
        99        1.9996           -0.3363288              -9.1520 (HOMO)
       100        0.0004           -0.3200106              -8.7079 (LUMO)
       101        0.0000           -0.3145690              -8.5599
       102                         -0.2935764              -7.9886
       103                         -0.2782380              -7.5712
       104                         -0.2661964              -7.2436
       105                         -0.2606272              -7.0920
       106                         -0.2552555              -6.9459
       107                         -0.2351743              -6.3994
       108                         -0.2153858              -5.8609
       109                         -0.2098676              -5.7108
       110                         -0.2075680              -5.6482
       ...                                ...                  ...
       191                          1.1688045              31.8048
      -------------------------------------------------------------
                  HL-Gap            0.0163182 Eh            0.4440 eV
             Fermi-level           -0.3281712 Eh           -8.9300 eV

     #   Z          covCN         q      C6AA      α(0)
     1   1 H        0.926     0.039     2.460     2.453
     2   6 C        2.952     0.093    25.928     8.352
     3   1 H        0.926     0.035     2.519     2.482
     4   7 N        1.851    -0.229    26.857     7.681
     5   1 H        0.926     0.063     2.166     2.302
     6   6 C        2.905     0.099    25.809     8.330
     7   6 C        2.915    -0.024    28.599     8.769
     8   1 H        0.925     0.037     2.492     2.469
     9   1 H        0.925     0.043     2.413     2.429
    10   1 H        0.925     0.036     2.502     2.473
    11   6 C        3.019    -0.051    29.250     8.871
    12   7 N        1.855    -0.240    27.126     7.719
    13   6 C        3.046    -0.057    29.375     8.889
    14   1 H        0.926     0.016     2.797     2.615
    15   6 C        2.913    -0.040    28.985     8.828
    16   1 H        0.926     0.049     2.337     2.391
    17   6 C        3.043    -0.041    28.981     8.830
    18   7 N        2.812    -0.064    22.474     7.041
    19   6 C        3.037    -0.010    28.223     8.714
    20   6 C        3.005    -0.057    29.395     8.894
    21   1 H        0.926     0.013     2.845     2.638
    22   6 C        1.910     0.122    28.095     8.560
    23   7 N        0.911    -0.216    25.717     7.334
    24   6 C        2.931    -0.041    29.019     8.834
    25   6 C        2.925    -0.019    28.473     8.751
    26   6 C        2.977     0.002    27.980     8.677
    27   6 C        2.905    -0.021    28.536     8.759
    28   6 C        2.964    -0.014    28.349     8.733
    29   6 C        2.913     0.065    26.546     8.449
    30   6 C        2.965     0.002    27.981     8.677
    31   1 H        0.926     0.063     2.169     2.303
    32   7 N        1.834    -0.214    26.486     7.627
    33   6 C        2.850     0.052    26.816     8.487
    34   1 H        0.926     0.050     2.317     2.380
    35   7 N        1.846    -0.169    25.450     7.477
    36   1 H        0.925     0.046     2.373     2.409
    37   6 C        2.921    -0.035    28.870     8.811
    38   1 H        0.926     0.044     2.401     2.423
    39   1 H        0.925     0.046     2.376     2.411
    40   7 N        1.839    -0.212    26.460     7.623
    41   6 C        2.933    -0.025    28.622     8.774
    42   6 C        2.977    -0.002    28.083     8.693
    43   6 C        2.991     0.029    27.355     8.579
    44   6 C        3.122    -0.017    28.253     8.705
    45   6 C        2.971    -0.003    28.091     8.694
    46   6 C        2.905     0.056    26.744     8.480
    47   1 H        0.926     0.046     2.364     2.404
    48   6 C        2.982     0.086    26.088     8.378
    49   6 C        3.111    -0.002    27.919     8.656
    50   6 C        3.033    -0.004    28.101     8.695
    51   1 H        0.860     0.164     1.308     1.791
    52   6 C        2.965     0.084    26.128     8.384
    53   6 C        2.968     0.013    27.711     8.635
    54   6 C        2.985    -0.008    28.220     8.714
    55   6 C        3.087    -0.017    28.325     8.724
    56   6 C        2.917    -0.033    28.815     8.803
    57   6 C        2.912     0.057    26.720     8.476
    58   1 H        0.926     0.051     2.311     2.377
    59   1 H        0.926     0.019     2.755     2.596
    60   6 C        2.953     0.095    25.890     8.346
    61   6 C        2.945     0.099    25.809     8.332
    62   1 H        0.926     0.053     2.287     2.365

 Mol. C6AA /au·bohr⁶  :      64769.856521
 Mol. C8AA /au·bohr⁸  :    1661644.743363
 Mol. α(0) /au        :        409.495239


Wiberg/Mayer (AO) data.
largest (>0.10) Wiberg bond orders for each atom

 ---------------------------------------------------------------------------
     #   Z sym  total        # sym  WBO       # sym  WBO       # sym  WBO
 ---------------------------------------------------------------------------
     1   1 H    0.998 --    19 C    0.971
     2   6 C    3.954 --    12 N    1.393    42 C    1.208    54 C    1.145
     3   1 H    0.997 --    27 C    0.967
     4   7 N    3.054 --    60 C    1.491    52 C    1.295
     5   1 H    0.996 --    56 C    0.966
     6   6 C    3.962 --    35 N    1.382    30 C    1.164    44 C    1.117
     7   6 C    3.990 --    56 C    1.543    25 C    1.340    58 H    0.968
     8   1 H    0.998 --    37 C    0.964
     9   1 H    0.998 --    57 C    0.964
    10   1 H    0.997 --    41 C    0.964
    11   6 C    3.950 --    17 C    1.356    55 C    1.343    21 H    0.973
    12   7 N    3.083 --    61 C    1.401     2 C    1.393
    13   6 C    3.980 --    19 C    1.600    44 C    1.253    38 H    0.973
    14   1 H    0.999 --    17 C    0.974
    15   6 C    3.980 --    57 C    1.486    43 C    1.336    47 H    0.963
                            29 C    0.113
    16   1 H    0.998 --    50 C    0.969
    17   6 C    3.959 --    20 C    1.475    11 C    1.356    14 H    0.974
    18   7 N    3.591 --    50 C    1.273    19 C    1.204    51 H    0.946
    19   6 C    3.939 --    13 C    1.600    18 N    1.204     1 H    0.971
                            50 C    0.117
    20   6 C    3.859 --    17 C    1.475    49 C    1.249    59 H    0.974
    21   1 H    0.999 --    11 C    0.973
    22   6 C    3.948 --    23 N    2.808    53 C    1.094
    23   7 N    2.980 --    22 C    2.808
    24   6 C    3.968 --    27 C    1.394    26 C    1.392    34 H    0.962
    25   6 C    3.980 --    53 C    1.459     7 C    1.340    62 H    0.969
    26   6 C    3.976 --    24 C    1.392    30 C    1.198    61 C    1.130
    27   6 C    3.970 --    49 C    1.420    24 C    1.394     3 H    0.967
    28   6 C    3.967 --    41 C    1.389    61 C    1.191    33 C    1.168
    29   6 C    3.968 --    32 N    1.506    54 C    1.315    31 H    0.958
                            15 C    0.113
    30   6 C    3.978 --    55 C    1.306    26 C    1.198     6 C    1.164
    31   1 H    0.995 --    29 C    0.958
    32   7 N    3.059 --    29 C    1.506    57 C    1.370
    33   6 C    3.913 --    35 N    1.585    28 C    1.168    39 H    0.951
    34   1 H    0.997 --    24 C    0.962
    35   7 N    3.289 --    33 C    1.585     6 C    1.382
    36   1 H    0.997 --    46 C    0.960
    37   6 C    3.971 --    45 C    1.572    42 C    1.216     8 H    0.964
    38   1 H    0.998 --    13 C    0.973
    39   1 H    0.995 --    33 C    0.951
    40   7 N    3.073 --    46 C    1.580    48 C    1.286
    41   6 C    3.940 --    28 C    1.389    42 C    1.363    10 H    0.964
    42   6 C    3.971 --    41 C    1.363    37 C    1.216     2 C    1.208
    43   6 C    3.978 --    15 C    1.336    54 C    1.294    45 C    1.149
    44   6 C    3.976 --    50 C    1.435    13 C    1.253     6 C    1.117
    45   6 C    3.967 --    37 C    1.572    43 C    1.149    60 C    1.055
    46   6 C    3.972 --    40 N    1.580    60 C    1.222    36 H    0.960
    47   1 H    0.997 --    15 C    0.963
    48   6 C    3.976 --    40 N    1.286    52 C    1.226    53 C    1.214
    49   6 C    3.958 --    27 C    1.420    20 C    1.249    55 C    1.101
    50   6 C    3.924 --    44 C    1.435    18 N    1.273    16 H    0.969
                            19 C    0.117
    51   1 H    0.972 --    18 N    0.946
    52   6 C    3.980 --     4 N    1.295    56 C    1.263    48 C    1.226
    53   6 C    3.989 --    25 C    1.459    48 C    1.214    22 C    1.094
                            56 C    0.105
    54   6 C    3.984 --    29 C    1.315    43 C    1.294     2 C    1.145
    55   6 C    3.971 --    11 C    1.343    30 C    1.306    49 C    1.101
    56   6 C    3.953 --     7 C    1.543    52 C    1.263     5 H    0.966
                            53 C    0.105
    57   6 C    3.965 --    15 C    1.486    32 N    1.370     9 H    0.964
    58   1 H    0.996 --     7 C    0.968
    59   1 H    0.999 --    20 C    0.974
    60   6 C    3.972 --     4 N    1.491    46 C    1.222    45 C    1.055
    61   6 C    3.942 --    12 N    1.401    28 C    1.191    26 C    1.130
    62   1 H    0.997 --    25 C    0.969
 ---------------------------------------------------------------------------

Topologies differ in bond orders
Writing corrected topology to xtbtopo.sdf

molecular dipole:
                 x           y           z       tot (Debye)
 q only:        0.814       0.797       0.940
   full:        0.803       0.370       1.241       3.872
molecular quadrupole (traceless):
                xx          xy          yy          xz          yz          zz
 q only:       17.405      34.423     -43.577      36.519      10.524      26.172
  q+dip:       21.401      40.639     -55.917      48.954      17.483      34.516
   full:       28.102      44.769     -62.221      40.980      17.194      34.119

           -------------------------------------------------
          |                Geometry Summary                 |
           -------------------------------------------------

      molecular mass/u    :      549.5842891
   center of mass at/Å    :        0.0252790      -0.3228926      -0.1759073
  moments of inertia/u·Å² :        0.2608036E+04   0.1658096E+05   0.1787626E+05
rotational constants/cm⁻¹ :        0.6463727E-02   0.1016686E-02   0.9430179E-03

 * 64 selected distances

     #   Z          #   Z                                           value/Å
     2   6 C       12   7 N                                       1.3222452
    11   6 C       17   6 C                                       1.4017105
    14   1 H       17   6 C                                       1.0759551
     1   1 H       19   6 C                                       1.0717453
    13   6 C       19   6 C                                       1.3616334
    18   7 N       19   6 C                                       1.3649848
    17   6 C       20   6 C                                       1.3823920
    11   6 C       21   1 H                                       1.0744245
    22   6 C       23   7 N                                       1.1459714
     7   6 C       25   6 C                                       1.4009080
    24   6 C       26   6 C                                       1.3969020
     3   1 H       27   6 C                                       1.0810587
    24   6 C       27   6 C                                       1.3883190
     6   6 C       30   6 C                                       1.4331033
    29   6 C       31   1 H                                       1.0812039
    29   6 C       32   7 N                                       1.3094315
    28   6 C       33   6 C                                       1.4265931
    24   6 C       34   1 H                                       1.0782215
     6   6 C       35   7 N                                       1.3173553
    33   6 C       35   7 N                                       1.2839872
     8   1 H       37   6 C                                       1.0819862
    13   6 C       38   1 H                                       1.0705027
    33   6 C       39   1 H                                       1.0853756
    10   1 H       41   6 C                                       1.0820785
    28   6 C       41   6 C                                       1.3933965
     2   6 C       42   6 C                                       1.4224897
    37   6 C       42   6 C                                       1.4182489
    41   6 C       42   6 C                                       1.3916897
    15   6 C       43   6 C                                       1.4022166
     6   6 C       44   6 C                                       1.4415992 (max)
    13   6 C       44   6 C                                       1.4227355
    37   6 C       45   6 C                                       1.3644236
    36   1 H       46   6 C                                       1.0817288
    40   7 N       46   6 C                                       1.3002762
    15   6 C       47   1 H                                       1.0778005
    40   7 N       48   6 C                                       1.3490591
    20   6 C       49   6 C                                       1.4135175
    27   6 C       49   6 C                                       1.3763879
    16   1 H       50   6 C                                       1.0710234
    18   7 N       50   6 C                                       1.3494474
    44   6 C       50   6 C                                       1.3848714
    18   7 N       51   1 H                                       1.0068313 (min)
     4   7 N       52   6 C                                       1.3457742
    48   6 C       52   6 C                                       1.4210049
    25   6 C       53   6 C                                       1.3801348
    48   6 C       53   6 C                                       1.4185836
     2   6 C       54   6 C                                       1.4363566
    29   6 C       54   6 C                                       1.4042312
    43   6 C       54   6 C                                       1.4126086
    11   6 C       55   6 C                                       1.4003233
    30   6 C       55   6 C                                       1.4033495
     5   1 H       56   6 C                                       1.0787788
     7   6 C       56   6 C                                       1.3691170
    52   6 C       56   6 C                                       1.4097796
     9   1 H       57   6 C                                       1.0820402
    15   6 C       57   6 C                                       1.3765590
    32   7 N       57   6 C                                       1.3330343
Note: The following floating-point exceptions are signalling: IEEE_UNDERFLOW_FLAG IEEE_DENORMAL
normal termination of xtb
     7   6 C       58   1 H                                       1.0796498
    20   6 C       59   1 H                                       1.0742087
     4   7 N       60   6 C                                       1.3145199
    46   6 C       60   6 C                                       1.4236230
    12   7 N       61   6 C                                       1.3274616
    28   6 C       61   6 C                                       1.4354707
    25   6 C       62   1 H                                       1.0800964

 * 4 distinct bonds (by element types)

   Z      Z             #   av. dist./Å        max./Å        min./Å
   1 H    6 C          18     1.0782155     1.0853756     1.0705027
   6 C    6 C          32     1.4035712     1.4415992     1.3616334
   1 H    7 N           1     1.0068313     1.0068313     1.0068313
   6 C    7 N          13     1.3125806     1.3649848     1.1459714


optimized geometry written to: xtbopt.sdf


           -------------------------------------------------
          | TOTAL ENERGY             -107.167588386808 Eh   |
          | GRADIENT NORM               0.001265390035 Eh/α |
          | HOMO-LUMO GAP               0.444041899165 eV   |
           -------------------------------------------------

------------------------------------------------------------------------
 * finished run on 2026/08/25 at 07:10:02.679     
------------------------------------------------------------------------
 total:
 * wall-time:     0 d,  0 h,  0 min,  4.335 sec
 *  cpu-time:     0 d,  0 h,  0 min,  4.312 sec
 * ratio c/w:     0.995 speedup
 SCF:
 * wall-time:     0 d,  0 h,  0 min,  0.139 sec
 *  cpu-time:     0 d,  0 h,  0 min,  0.139 sec
 * ratio c/w:     0.999 speedup
 ANC optimizer:
 * wall-time:     0 d,  0 h,  0 min,  4.158 sec
 *  cpu-time:     0 d,  0 h,  0 min,  4.149 sec
 * ratio c/w:     0.998 speedup

