      -----------------------------------------------------------      
     |                   =====================                   |     
     |                           x T B                           |     
     |                   =====================                   |     
     |                         S. Grimme                         |     
     |          Mulliken Center for Theoretical Chemistry        |     
     |                    University of Bonn                     |     
      -----------------------------------------------------------      

   * xtb version 6.7.1 (edcfbbe) compiled by 'conda@5dfe00f5fb80' on 2026-06-10

   xtb is free software: you can redistribute it and/or modify it under
   the terms of the GNU Lesser General Public License as published by
   the Free Software Foundation, either version 3 of the License, or
   (at your option) any later version.
   
   xtb is distributed in the hope that it will be useful,
   but WITHOUT ANY WARRANTY; without even the implied warranty of
   MERCHANTABILITY or FITNESS FOR A PARTICULAR PURPOSE.  See the
   GNU Lesser General Public License for more details.
   
   Cite this work as:
   * C. Bannwarth, E. Caldeweyher, S. Ehlert, A. Hansen, P. Pracht,
     J. Seibert, S. Spicher, S. Grimme, WIREs Comput. Mol. Sci., 2020, 11,
     e01493. DOI: 10.1002/wcms.1493
   
   for GFN2-xTB:
   * C. Bannwarth, S. Ehlert and S. Grimme., J. Chem. Theory Comput., 2019,
     15, 1652-1671. DOI: 10.1021/acs.jctc.8b01176
   for GFN1-xTB:
   * S. Grimme, C. Bannwarth, P. Shushkov, J. Chem. Theory Comput., 2017,
     13, 1989-2009. DOI: 10.1021/acs.jctc.7b00118
   for GFN0-xTB:
   * P. Pracht, E. Caldeweyher, S. Ehlert, S. Grimme, ChemRxiv, 2019, preprint.
     DOI: 10.26434/chemrxiv.8326202.v1
   for GFN-FF:
   * S. Spicher and S. Grimme, Angew. Chem. Int. Ed., 2020, 59, 15665-15673.
     DOI: 10.1002/anie.202004239
   
   for ALPB and GBSA implicit solvation:
   * S. Ehlert, M. Stahn, S. Spicher, S. Grimme, J. Chem. Theory Comput.,
     2021, 17, 4250-4261. DOI: 10.1021/acs.jctc.1c00471
   
   for ddCOSMO and CPCM-X implicit solvation:
   * M. Stahn, S. Ehlert, S. Grimme, J. Phys. Chem. A,
     2023, XX, XXXX-XXXX. DOI: 10.1021/acs.jpca.3c04382
   
   for DFT-D4:
   * E. Caldeweyher, C. Bannwarth and S. Grimme, J. Chem. Phys., 2017,
     147, 034112. DOI: 10.1063/1.4993215
   * E. Caldeweyher, S. Ehlert, A. Hansen, H. Neugebauer, S. Spicher,
     C. Bannwarth and S. Grimme, J. Chem. Phys., 2019, 150, 154122.
     DOI: 10.1063/1.5090222
   * E. Caldeweyher, J.-M. Mewes, S. Ehlert and S. Grimme, Phys. Chem. Chem. Phys.
     2020, 22, 8499-8512. DOI: 10.1039/D0CP00502A
   
   for sTDA-xTB:
   * S. Grimme and C. Bannwarth, J. Chem. Phys., 2016, 145, 054103.
     DOI: 10.1063/1.4959605
   
   in the mass-spec context:
   * V. Asgeirsson, C. Bauer and S. Grimme, Chem. Sci., 2017, 8, 4879.
     DOI: 10.1039/c7sc00601b
   * J. Koopman and S. Grimme, ACS Omega 2019, 4, 12, 15120-15133.
     DOI: 10.1021/acsomega.9b02011
   
   for metadynamics refer to:
   * S. Grimme, J. Chem. Theory Comput., 2019, 155, 2847-2862
     DOI: 10.1021/acs.jctc.9b00143
   
   for SPH calculations refer to:
   * S. Spicher and S. Grimme, J. Chem. Theory Comput., 2021, 17, 1701-1714
     DOI: 10.1021/acs.jctc.0c01306
   
   for ONIOM refer to:
   * C. Plett, A. Katbashev, S. Ehlert, S. Grimme, M. Bursch,
     Phys. Chem. Chem. Phys., 2023, 25, 17860-17868. DOI: 10.1039/D3CP02178E
   
   for DIPRO refer to:
   * J. Kohn, N. Gildemeister, S. Grimme, D. Fazzi, A. Hansen,
     J. Chem. Phys., 2023, just accepted.
   
   for PTB refer to:
   * S. Grimme, M. Mueller, A. Hansen, J. Chem. Phys., 2023, 158, 124111.
     DOI: 10.1063/5.0137838
   
   with help from (in alphabetical order)
   P. Atkinson, C. Bannwarth, F. Bohle, G. Brandenburg, E. Caldeweyher
   M. Checinski, S. Dohm, S. Ehlert, S. Ehrlich, I. Gerasimov, C. Hölzer
   A. Katbashev, J. Kohn, J. Koopman, C. Lavigne, S. Lehtola, F. März, M. Müller,
   F. Musil, H. Neugebauer, J. Pisarek, C. Plett, P. Pracht, F. Pultar,
   J. Seibert, P. Shushkov, S. Spicher, M. Stahn, M. Steiner, T. Strunk,
   J. Stückrath, T. Rose, and J. Unsleber
   
 * started run on 2026/08/21 at 05:33:48.966     
   ID    Z sym.   atoms
    1    8 O      1
    2    6 C      2, 7, 8, 10, 11, 13-20, 22, 23, 25, 30, 31, 33, 36, 41-44,
                  46-48, 51-53, 55, 58-61, 63, 65, 68, 70-72, 75, 76
    3    1 H      3, 5, 9, 12, 21, 26-29, 32, 35, 37-40, 45, 50, 54, 56, 57,
                  62, 66, 69, 73, 77, 79, 80
    4    7 N      4, 6, 24, 34, 49, 64, 67, 74, 78

           -------------------------------------------------
          |                Calculation Setup                |
           -------------------------------------------------

          program call               : xtb 00062.sdf --opt loose --cycles 500
          coordinate file            : 00062.sdf
          omp threads                :                     1


           -------------------------------------------------
          |                 G F N 2 - x T B                 |
           -------------------------------------------------

        Reference                      10.1021/acs.jctc.8b01176
      * Hamiltonian:
        H0-scaling (s, p, d)           1.850000    2.230000    2.230000
        zeta-weighting                 0.500000
      * Dispersion:
        s8                             2.700000
        a1                             0.520000
        a2                             5.000000
        s9                             5.000000
      * Repulsion:
        kExp                           1.500000    1.000000
        rExp                           1.000000
      * Coulomb:
        alpha                          2.000000
        third order                    shell-resolved
        anisotropic                    true
        a3                             3.000000
        a5                             4.000000
        cn-shift                       1.200000
        cn-exp                         4.000000
        max-rad                        5.000000


          ...................................................
          :                      SETUP                      :
          :.................................................:
          :  # basis functions                 239          :
          :  # atomic orbitals                 239          :
          :  # shells                          133          :
          :  # electrons                       250          :
          :  max. iterations                   250          :
          :  Hamiltonian                  GFN2-xTB          :
          :  restarted?                      false          :
          :  GBSA solvation                  false          :
          :  PC potential                    false          :
          :  electronic temp.          300.0000000     K    :
          :  accuracy                    1.0000000          :
          :  -> integral cutoff          0.2500000E+02      :
          :  -> integral neglect         0.1000000E-07      :
          :  -> SCF convergence          0.1000000E-05 Eh   :
          :  -> wf. convergence          0.1000000E-03 e    :
          :  Broyden damping             0.4000000          :
          :  net charge                          0          :
          :  unpaired electrons                  0          :
          ...................................................

 iter      E             dE          RMSdq      gap      omega  full diag
   1   -137.3042743 -0.137304E+03  0.477E+00    1.00       0.0  T
   2   -137.3182147 -0.139405E-01  0.343E+00    0.71       1.0  T
   3   -137.2129396  0.105275E+00  0.239E+00    0.76       1.0  T
   4   -137.4735259 -0.260586E+00  0.996E-01    0.52       1.0  T
   5   -137.5563149 -0.827890E-01  0.461E-01    0.69       1.0  T
   6   -137.5783308 -0.220159E-01  0.161E-01    0.61       1.0  T
   7   -137.5787752 -0.444408E-03  0.108E-01    0.60       1.0  T
   8   -137.5791590 -0.383865E-03  0.559E-02    0.62       1.0  T
   9   -137.5793532 -0.194191E-03  0.284E-02    0.61       1.0  T
  10   -137.5794094 -0.561550E-04  0.946E-03    0.61       1.2  T
  11   -137.5794144 -0.496962E-05  0.363E-03    0.61       3.1  T
  12   -137.5794146 -0.259194E-06  0.211E-03    0.61       5.3  T
  13   -137.5794149 -0.324653E-06  0.980E-04    0.61      11.4  T
  14   -137.5794150 -0.359981E-07  0.485E-04    0.61      23.0  T

   *** convergence criteria satisfied after 14 iterations ***

         #    Occupation            Energy/Eh            Energy/eV
      -------------------------------------------------------------
         1        2.0000           -0.7087142             -19.2851
       ...           ...                  ...                  ...
       119        2.0000           -0.3735767             -10.1655
       120        2.0000           -0.3710374             -10.0964
       121        2.0000           -0.3600785              -9.7982
       122        2.0000           -0.3598461              -9.7919
       123        2.0000           -0.3558767              -9.6839
       124        2.0000           -0.3416876              -9.2978
       125        2.0000           -0.3401015              -9.2546 (HOMO)
       126        0.0000           -0.3175948              -8.6422 (LUMO)
       127                         -0.3053911              -8.3101
       128                         -0.2969246              -8.0797
       129                         -0.2871433              -7.8136
       130                         -0.2838564              -7.7241
       ...                                ...                  ...
       239                          0.6612299              17.9930
      -------------------------------------------------------------
                  HL-Gap            0.0225067 Eh            0.6124 eV
             Fermi-level           -0.3287662 Eh           -8.9462 eV

 SCC (total)                   0 d,  0 h,  0 min,  0.161 sec
 SCC setup                      ...        0 min,  0.001 sec (  0.368%)
 Dispersion                     ...        0 min,  0.002 sec (  1.194%)
 classical contributions        ...        0 min,  0.000 sec (  0.156%)
 integral evaluation            ...        0 min,  0.015 sec (  9.586%)
 iterations                     ...        0 min,  0.089 sec ( 55.224%)
 molecular gradient             ...        0 min,  0.053 sec ( 33.075%)
 printout                       ...        0 min,  0.001 sec (  0.391%)

         :::::::::::::::::::::::::::::::::::::::::::::::::::::
         ::                     SUMMARY                     ::
         :::::::::::::::::::::::::::::::::::::::::::::::::::::
         :: total energy            -135.828127637030 Eh    ::
         :: gradient norm              0.306266496900 Eh/a0 ::
         :: HOMO-LUMO gap              0.612438355770 eV    ::
         ::.................................................::
         :: SCC energy              -137.578753348898 Eh    ::
         :: -> isotropic ES            0.076253782724 Eh    ::
         :: -> anisotropic ES          0.018412838575 Eh    ::
         :: -> anisotropic XC          0.112443784778 Eh    ::
         :: -> dispersion             -0.102839607332 Eh    ::
         :: repulsion energy           1.750625711868 Eh    ::
         :: add. restraining           0.000000000000 Eh    ::
         :: total charge              -0.000000000000 e     ::
         :::::::::::::::::::::::::::::::::::::::::::::::::::::

      ----------------------------------------------------------- 
     |                   =====================                   |
     |                        A N C O P T                        |
     |                   =====================                   |
     |               Approximate Normal Coordinate               |
     |                Rational Function Optimizer                |
      ----------------------------------------------------------- 
      ----------------------------------------------------------- 
     |                   =====================                   |
     |                        A N C O P T                        |
     |                   =====================                   |
     |               Approximate Normal Coordinate               |
     |                Rational Function Optimizer                |
      ----------------------------------------------------------- 

          ...................................................
          :                      SETUP                      :
          :.................................................:
          :   optimization level             loose          :
          :   max. optcycles                   500          :
          :   ANC micro-cycles                  20          :
          :   degrees of freedom               234          :
          :.................................................:
          :   RF solver                   davidson          :
          :   write xtbopt.log                true          :
          :   linear?                        false          :
          :   energy convergence         0.5000000E-04 Eh   :
          :   grad. convergence          0.4000000E-02 Eh/α :
          :   maxmium RF displ.          1.0000000          :
          :   Hlow (freq-cutoff)         0.1000000E-01      :
          :   Hmax (freq-cutoff)         5.0000000          :
          :   S6 in model hess.         20.0000000          :
          ...................................................

generating ANC from exact Hessian ...
Using Lindh-Hessian (1995)
 Shifting diagonal of input Hessian by    9.9720865736868773E-003
 Lowest  eigenvalues of input Hessian
    0.000000    0.000000    0.000000    0.000000    0.000000    0.000000
    0.010000    0.010049    0.010074    0.010116    0.010176    0.010227
    0.010364    0.010457    0.010625    0.010935    0.011048    0.011400
 Highest eigenvalues
    1.948476    1.991933    2.073671    2.134407    2.198738    2.271791


........................................................................
.............................. CYCLE    1 ..............................
........................................................................

 iter      E             dE          RMSdq      gap      omega  full diag
   1   -137.5794150 -0.137579E+03  0.164E-04    0.61       0.0  T
   2   -137.5794150  0.395147E-09  0.145E-04    0.61      77.0  T
   3   -137.5794150 -0.122714E-08  0.819E-05    0.61     136.5  T
     SCC iter.                  ...        0 min,  0.020 sec
     gradient                   ...        0 min,  0.053 sec
 * total energy  :  -135.8281276 Eh     change       -0.1184520E-07 Eh
   gradient norm :     0.3062649 Eh/α   predicted     0.0000000E+00 (-100.00%)
   displ. norm   :     0.6556873 α      lambda       -0.1481536E+00
   maximum displ.:     0.2047655 α      in ANC's #25, #67, #128, ...

........................................................................
.............................. CYCLE    2 ..............................
........................................................................

 iter      E             dE          RMSdq      gap      omega  full diag
   1   -137.8030531 -0.137803E+03  0.363E-01    0.69       0.0  T
   2   -137.8030999 -0.468418E-04  0.237E-01    0.73       1.0  T
   3   -137.8023914  0.708503E-03  0.197E-01    0.71       1.0  T
   4   -137.8043100 -0.191858E-02  0.633E-02    0.72       1.0  T
   5   -137.8046856 -0.375649E-03  0.246E-02    0.73       1.0  T
   6   -137.8047338 -0.482108E-04  0.120E-02    0.72       1.0  T
   7   -137.8047447 -0.108977E-04  0.599E-03    0.73       1.9  T
   8   -137.8047470 -0.229571E-05  0.202E-03    0.73       5.5  T
   9   -137.8047472 -0.111230E-06  0.835E-04    0.73      13.4  T
  10   -137.8047472 -0.319662E-07  0.359E-04    0.73      31.2  T
     SCC iter.                  ...        0 min,  0.062 sec
     gradient                   ...        0 min,  0.053 sec
 * total energy  :  -135.9501124 Eh     change       -0.1219848E+00 Eh
   gradient norm :     0.1804927 Eh/α   predicted    -0.1059634E+00 ( -13.13%)
   displ. norm   :     0.7284063 α      lambda       -0.1019966E+00
   maximum displ.:     0.2949059 α      in ANC's #25, #67, #62, ...

........................................................................
.............................. CYCLE    3 ..............................
........................................................................

 iter      E             dE          RMSdq      gap      omega  full diag
   1   -138.0184911 -0.138018E+03  0.365E-01    0.78       0.0  T
   2   -138.0186570 -0.165924E-03  0.236E-01    0.80       1.0  T
   3   -138.0190068 -0.349793E-03  0.185E-01    0.82       1.0  T
   4   -138.0203517 -0.134495E-02  0.525E-02    0.82       1.0  T
   5   -138.0205691 -0.217407E-03  0.168E-02    0.82       1.0  T
   6   -138.0205858 -0.166918E-04  0.886E-03    0.82       1.3  T
   7   -138.0205900 -0.414664E-05  0.509E-03    0.82       2.2  T
   8   -138.0205919 -0.187729E-05  0.181E-03    0.82       6.2  T
   9   -138.0205920 -0.147653E-06  0.702E-04    0.82      15.9  T
  10   -138.0205920 -0.229682E-07  0.281E-04    0.82      39.8  T
     SCC iter.                  ...        0 min,  0.062 sec
     gradient                   ...        0 min,  0.053 sec
 * total energy  :  -136.0248820 Eh     change       -0.7476960E-01 Eh
   gradient norm :     0.0860059 Eh/α   predicted    -0.7805677E-01 (   4.40%)
   displ. norm   :     0.7868968 α      lambda       -0.5299928E-01
   maximum displ.:     0.4497047 α      in ANC's #25, #39, #33, ...

........................................................................
.............................. CYCLE    4 ..............................
........................................................................

 iter      E             dE          RMSdq      gap      omega  full diag
   1   -138.1421749 -0.138142E+03  0.268E-01    0.83       0.0  T
   2   -138.1423125 -0.137574E-03  0.164E-01    0.82       1.0  T
   3   -138.1417495  0.562952E-03  0.130E-01    0.84       1.0  T
   4   -138.1426596 -0.910136E-03  0.278E-02    0.83       1.0  T
   5   -138.1427267 -0.670308E-04  0.107E-02    0.84       1.0  T
   6   -138.1427360 -0.932147E-05  0.407E-03    0.84       2.7  T
   7   -138.1427365 -0.474550E-06  0.248E-03    0.84       4.5  T
   8   -138.1427368 -0.315703E-06  0.858E-04    0.84      13.0  T
   9   -138.1427368 -0.395557E-07  0.340E-04    0.84      32.9  T
     SCC iter.                  ...        0 min,  0.056 sec
     gradient                   ...        0 min,  0.053 sec
 * total energy  :  -136.0695418 Eh     change       -0.4465978E-01 Eh
   gradient norm :     0.0595377 Eh/α   predicted    -0.4290846E-01 (  -3.92%)
   displ. norm   :     0.8487105 α      lambda       -0.4028473E-01
   maximum displ.:     0.5532615 α      in ANC's #25, #33, #39, ...

........................................................................
.............................. CYCLE    5 ..............................
........................................................................

 iter      E             dE          RMSdq      gap      omega  full diag
   1   -138.2282105 -0.138228E+03  0.209E-01    0.84       0.0  T
   2   -138.2283137 -0.103205E-03  0.129E-01    0.83       1.0  T
   3   -138.2280098  0.303908E-03  0.924E-02    0.86       1.0  T
   4   -138.2284807 -0.470897E-03  0.174E-02    0.85       1.0  T
   5   -138.2285047 -0.239890E-04  0.765E-03    0.85       1.5  T
   6   -138.2285095 -0.477572E-05  0.273E-03    0.85       4.1  T
   7   -138.2285096 -0.106329E-06  0.161E-03    0.85       6.9  T
   8   -138.2285097 -0.154228E-06  0.464E-04    0.85      24.1  T
   9   -138.2285097 -0.924334E-08  0.241E-04    0.85      46.5  T
     SCC iter.                  ...        0 min,  0.055 sec
     gradient                   ...        0 min,  0.053 sec
 * total energy  :  -136.1048859 Eh     change       -0.3534407E-01 Eh
   gradient norm :     0.0469465 Eh/α   predicted    -0.3465112E-01 (  -1.96%)
   displ. norm   :     0.8724494 α      lambda       -0.3256950E-01
   maximum displ.:     0.5955915 α      in ANC's #25, #33, #39, ...

........................................................................
.............................. CYCLE    6 ..............................
........................................................................

 iter      E             dE          RMSdq      gap      omega  full diag
   1   -138.2872163 -0.138287E+03  0.174E-01    0.84       0.0  T
   2   -138.2872869 -0.706012E-04  0.112E-01    0.84       1.0  T
   3   -138.2870641  0.222772E-03  0.751E-02    0.87       1.0  T
   4   -138.2874249 -0.360784E-03  0.139E-02    0.86       1.0  T
   5   -138.2874407 -0.157848E-04  0.577E-03    0.86       1.9  T
   6   -138.2874432 -0.246575E-05  0.220E-03    0.86       5.1  T
   7   -138.2874433 -0.954974E-07  0.127E-03    0.86       8.8  T
   8   -138.2874434 -0.926313E-07  0.321E-04    0.86      34.8  T
   9   -138.2874434 -0.420340E-08  0.181E-04    0.86      61.7  T
     SCC iter.                  ...        0 min,  0.055 sec
     gradient                   ...        0 min,  0.053 sec
 * total energy  :  -136.1338246 Eh     change       -0.2893876E-01 Eh
   gradient norm :     0.0381254 Eh/α   predicted    -0.2868018E-01 (  -0.89%)
   displ. norm   :     0.8754773 α      lambda       -0.2637253E-01
   maximum displ.:     0.6036054 α      in ANC's #25, #33, #26, ...

........................................................................
.............................. CYCLE    7 ..............................
........................................................................

 iter      E             dE          RMSdq      gap      omega  full diag
   1   -138.3379040 -0.138338E+03  0.157E-01    0.86       0.0  T
   2   -138.3379637 -0.596415E-04  0.105E-01    0.86       1.0  T
   3   -138.3377551  0.208565E-03  0.664E-02    0.88       1.0  T
   4   -138.3380952 -0.340111E-03  0.124E-02    0.87       1.0  T
   5   -138.3381072 -0.119741E-04  0.485E-03    0.87       2.3  T
   6   -138.3381086 -0.143399E-05  0.203E-03    0.87       5.5  T
   7   -138.3381087 -0.985328E-07  0.118E-03    0.87       9.5  T
   8   -138.3381088 -0.809847E-07  0.330E-04    0.87      33.8  T
   9   -138.3381088 -0.503445E-08  0.163E-04    0.87      68.7  T
     SCC iter.                  ...        0 min,  0.074 sec
     gradient                   ...        0 min,  0.054 sec
 * total energy  :  -136.1568316 Eh     change       -0.2300697E-01 Eh
   gradient norm :     0.0291497 Eh/α   predicted    -0.2329309E-01 (   1.24%)
   displ. norm   :     0.8577721 α      lambda       -0.2012351E-01
   maximum displ.:     0.5711043 α      in ANC's #25, #13, #15, ...

........................................................................
.............................. CYCLE    8 ..............................
........................................................................

 iter      E             dE          RMSdq      gap      omega  full diag
   1   -138.3792317 -0.138379E+03  0.156E-01    0.87       0.0  T
   2   -138.3792791 -0.474159E-04  0.985E-02    0.88       1.0  T
   3   -138.3790298  0.249296E-03  0.621E-02    0.89       1.0  T
   4   -138.3793492 -0.319345E-03  0.970E-03    0.89       1.2  T
   5   -138.3793564 -0.724366E-05  0.326E-03    0.89       3.4  T
   6   -138.3793569 -0.434825E-06  0.155E-03    0.89       7.2  T
   7   -138.3793569 -0.192003E-07  0.932E-04    0.89      12.0  T
   8   -138.3793569 -0.569650E-07  0.275E-04    0.89      40.7  T
     SCC iter.                  ...        0 min,  0.054 sec
     gradient                   ...        0 min,  0.054 sec
 * total energy  :  -136.1740567 Eh     change       -0.1722508E-01 Eh
   gradient norm :     0.0248515 Eh/α   predicted    -0.1746493E-01 (   1.39%)
   displ. norm   :     0.8332799 α      lambda       -0.1489284E-01
   maximum displ.:     0.5076125 α      in ANC's #25, #13, #15, ...

........................................................................
.............................. CYCLE    9 ..............................
........................................................................

 iter      E             dE          RMSdq      gap      omega  full diag
   1   -138.4167583 -0.138417E+03  0.151E-01    0.89       0.0  T
   2   -138.4167901 -0.317931E-04  0.930E-02    0.89       1.0  T
   3   -138.4165748  0.215335E-03  0.523E-02    0.90       1.0  T
   4   -138.4168240 -0.249260E-03  0.835E-03    0.89       1.3  T
   5   -138.4168289 -0.487204E-05  0.320E-03    0.89       3.5  T
   6   -138.4168294 -0.555605E-06  0.180E-03    0.89       6.2  T
   7   -138.4168296 -0.150864E-06  0.840E-04    0.89      13.3  T
   8   -138.4168296 -0.478916E-07  0.240E-04    0.89      46.6  T
     SCC iter.                  ...        0 min,  0.055 sec
     gradient                   ...        0 min,  0.054 sec
 * total energy  :  -136.1866242 Eh     change       -0.1256750E-01 Eh
   gradient norm :     0.0187220 Eh/α   predicted    -0.1261689E-01 (   0.39%)
   displ. norm   :     0.8176171 α      lambda       -0.1070743E-01
   maximum displ.:     0.4185614 α      in ANC's #25, #13, #15, ...

........................................................................
.............................. CYCLE   10 ..............................
........................................................................

 iter      E             dE          RMSdq      gap      omega  full diag
   1   -138.4463256 -0.138446E+03  0.142E-01    0.90       0.0  T
   2   -138.4463479 -0.223216E-04  0.856E-02    0.90       1.0  T
   3   -138.4461882  0.159733E-03  0.449E-02    0.90       1.0  T
   4   -138.4463642 -0.176054E-03  0.873E-03    0.90       1.3  T
   5   -138.4463702 -0.596401E-05  0.339E-03    0.90       3.3  T
   6   -138.4463709 -0.760170E-06  0.166E-03    0.90       6.7  T
   7   -138.4463711 -0.113739E-06  0.685E-04    0.90      16.3  T
   8   -138.4463711 -0.288159E-07  0.187E-04    0.90      59.9  T
     SCC iter.                  ...        0 min,  0.054 sec
     gradient                   ...        0 min,  0.054 sec
 * total energy  :  -136.1955307 Eh     change       -0.8906574E-02 Eh
   gradient norm :     0.0136370 Eh/α   predicted    -0.8932665E-02 (   0.29%)
   displ. norm   :     0.8050118 α      lambda       -0.7729493E-02
   maximum displ.:     0.3577869 α      in ANC's #13, #25, #15, ...

........................................................................
.............................. CYCLE   11 ..............................
........................................................................

 iter      E             dE          RMSdq      gap      omega  full diag
   1   -138.4658615 -0.138466E+03  0.131E-01    0.90       0.0  T
   2   -138.4658749 -0.133469E-04  0.787E-02    0.90       1.0  T
   3   -138.4656758  0.199043E-03  0.470E-02    0.90       1.0  T
   4   -138.4658930 -0.217166E-03  0.794E-03    0.91       1.4  T
   5   -138.4658979 -0.488280E-05  0.333E-03    0.91       3.4  T
   6   -138.4658986 -0.742860E-06  0.145E-03    0.91       7.7  T
   7   -138.4658987 -0.626615E-07  0.567E-04    0.91      19.7  T
   8   -138.4658987 -0.191617E-07  0.171E-04    0.91      65.3  T
     SCC iter.                  ...        0 min,  0.054 sec
     gradient                   ...        0 min,  0.054 sec
 * total energy  :  -136.2018613 Eh     change       -0.6330567E-02 Eh
   gradient norm :     0.0120480 Eh/α   predicted    -0.6369279E-02 (   0.61%)
   displ. norm   :     0.7966080 α      lambda       -0.5825623E-02
   maximum displ.:     0.3987981 α      in ANC's #13, #14, #15, ...

........................................................................
.............................. CYCLE   12 ..............................
........................................................................

 iter      E             dE          RMSdq      gap      omega  full diag
   1   -138.4810546 -0.138481E+03  0.119E-01    0.91       0.0  T
   2   -138.4810667 -0.120606E-04  0.708E-02    0.91       1.0  T
   3   -138.4809320  0.134601E-03  0.369E-02    0.91       1.0  T
   4   -138.4810764 -0.144313E-03  0.718E-03    0.92       1.6  T
   5   -138.4810804 -0.406478E-05  0.273E-03    0.91       4.1  T
   6   -138.4810808 -0.354356E-06  0.132E-03    0.91       8.4  T
   7   -138.4810809 -0.695456E-07  0.478E-04    0.91      23.4  T
   8   -138.4810809 -0.137418E-07  0.146E-04    0.91      76.7  T
     SCC iter.                  ...        0 min,  0.054 sec
     gradient                   ...        0 min,  0.054 sec
 * total energy  :  -136.2066197 Eh     change       -0.4758362E-02 Eh
   gradient norm :     0.0113978 Eh/α   predicted    -0.4761244E-02 (   0.06%)
   displ. norm   :     0.7858159 α      lambda       -0.4528017E-02
   maximum displ.:     0.3992921 α      in ANC's #13, #14, #15, ...

........................................................................
.............................. CYCLE   13 ..............................
........................................................................

 iter      E             dE          RMSdq      gap      omega  full diag
   1   -138.4899677 -0.138490E+03  0.117E-01    0.92       0.0  T
   2   -138.4899749 -0.722826E-05  0.687E-02    0.92       1.0  T
   3   -138.4898368  0.138128E-03  0.365E-02    0.92       1.0  T
   4   -138.4899855 -0.148711E-03  0.525E-03    0.93       2.1  T
   5   -138.4899872 -0.166712E-05  0.211E-03    0.93       5.3  T
   6   -138.4899873 -0.935081E-07  0.104E-03    0.93      10.7  T
   7   -138.4899873 -0.491446E-07  0.370E-04    0.93      30.2  T
   8   -138.4899873 -0.100654E-07  0.124E-04    0.93      90.5  T
     SCC iter.                  ...        0 min,  0.054 sec
     gradient                   ...        0 min,  0.055 sec
 * total energy  :  -136.2103865 Eh     change       -0.3766852E-02 Eh
   gradient norm :     0.0111914 Eh/α   predicted    -0.3662053E-02 (  -2.78%)
   displ. norm   :     0.7904188 α      lambda       -0.3820867E-02
   maximum displ.:     0.3998278 α      in ANC's #13, #14, #15, ...

........................................................................
.............................. CYCLE   14 ..............................
........................................................................

 iter      E             dE          RMSdq      gap      omega  full diag
   1   -138.4930456 -0.138493E+03  0.126E-01    0.92       0.0  T
   2   -138.4930570 -0.113866E-04  0.737E-02    0.93       1.0  T
   3   -138.4929926  0.643870E-04  0.260E-02    0.93       1.0  T
   4   -138.4930595 -0.669246E-04  0.717E-03    0.93       1.6  T
   5   -138.4930641 -0.456099E-05  0.233E-03    0.93       4.8  T
   6   -138.4930642 -0.122644E-06  0.108E-03    0.93      10.4  T
   7   -138.4930642 -0.415415E-07  0.329E-04    0.93      34.0  T
   8   -138.4930643 -0.506768E-08  0.135E-04    0.93      82.8  T
     SCC iter.                  ...        0 min,  0.054 sec
     gradient                   ...        0 min,  0.055 sec
 * total energy  :  -136.2134995 Eh     change       -0.3112955E-02 Eh
   gradient norm :     0.0101518 Eh/α   predicted    -0.3104008E-02 (  -0.29%)
   displ. norm   :     0.7866068 α      lambda       -0.3244696E-02
   maximum displ.:     0.3805805 α      in ANC's #13, #14, #15, ...

........................................................................
.............................. CYCLE   15 ..............................
........................................................................

 iter      E             dE          RMSdq      gap      omega  full diag
   1   -138.4996938 -0.138500E+03  0.132E-01    0.94       0.0  T
   2   -138.4997037 -0.989526E-05  0.774E-02    0.95       1.0  T
   3   -138.4996218  0.819117E-04  0.292E-02    0.94       1.0  T
   4   -138.4997084 -0.866284E-04  0.650E-03    0.95       1.7  T
   5   -138.4997118 -0.342210E-05  0.226E-03    0.95       5.0  T
   6   -138.4997119 -0.107027E-06  0.114E-03    0.95       9.8  T
   7   -138.4997120 -0.540577E-07  0.331E-04    0.95      33.8  T
   8   -138.4997120 -0.865541E-08  0.124E-04    0.95      90.2  T
     SCC iter.                  ...        0 min,  0.053 sec
     gradient                   ...        0 min,  0.055 sec
 * total energy  :  -136.2161176 Eh     change       -0.2618122E-02 Eh
   gradient norm :     0.0095606 Eh/α   predicted    -0.2626179E-02 (   0.31%)
   displ. norm   :     0.7800002 α      lambda       -0.2599960E-02
   maximum displ.:     0.3529395 α      in ANC's #13, #5, #14, ...

........................................................................
.............................. CYCLE   16 ..............................
........................................................................

 iter      E             dE          RMSdq      gap      omega  full diag
   1   -138.4996177 -0.138500E+03  0.141E-01    0.95       0.0  T
   2   -138.4996337 -0.159485E-04  0.824E-02    0.96       1.0  T
   3   -138.4996136  0.201173E-04  0.173E-02    0.96       1.0  T
   4   -138.4996364 -0.228041E-04  0.540E-03    0.96       2.1  T
   5   -138.4996383 -0.192351E-05  0.200E-03    0.96       5.6  T
   6   -138.4996383 -0.186942E-07  0.118E-03    0.96       9.4  T
   7   -138.4996384 -0.960148E-07  0.343E-04    0.96      32.6  T
   8   -138.4996384 -0.757552E-08  0.162E-04    0.96      68.8  T
     SCC iter.                  ...        0 min,  0.054 sec
     gradient                   ...        0 min,  0.055 sec
 * total energy  :  -136.2181241 Eh     change       -0.2006492E-02 Eh
   gradient norm :     0.0113626 Eh/α   predicted    -0.2090891E-02 (   4.21%)
   displ. norm   :     0.7396811 α      lambda       -0.2177100E-02
   maximum displ.:     0.2759526 α      in ANC's #13, #5, #14, ...

........................................................................
.............................. CYCLE   17 ..............................
........................................................................

 iter      E             dE          RMSdq      gap      omega  full diag
   1   -138.5040105 -0.138504E+03  0.135E-01    0.96       0.0  T
   2   -138.5040227 -0.122135E-04  0.790E-02    0.96       1.0  T
   3   -138.5039610  0.617389E-04  0.262E-02    0.97       1.0  T
   4   -138.5040289 -0.679257E-04  0.493E-03    0.97       2.3  T
   5   -138.5040305 -0.153508E-05  0.236E-03    0.97       4.7  T
   6   -138.5040307 -0.190772E-06  0.125E-03    0.97       9.0  T
   7   -138.5040307 -0.805255E-07  0.346E-04    0.97      32.3  T
   8   -138.5040307 -0.868897E-08  0.137E-04    0.97      81.4  T
     SCC iter.                  ...        0 min,  0.053 sec
     gradient                   ...        0 min,  0.055 sec
 * total energy  :  -136.2197739 Eh     change       -0.1649839E-02 Eh
   gradient norm :     0.0096309 Eh/α   predicted    -0.1684127E-02 (   2.08%)
   displ. norm   :     0.7105822 α      lambda       -0.1723847E-02
   maximum displ.:     0.2934062 α      in ANC's #5, #13, #7, ...

........................................................................
.............................. CYCLE   18 ..............................
........................................................................

 iter      E             dE          RMSdq      gap      omega  full diag
   1   -138.5067027 -0.138507E+03  0.119E-01    0.97       0.0  T
   2   -138.5067142 -0.114836E-04  0.702E-02    0.98       1.0  T
   3   -138.5066037  0.110494E-03  0.367E-02    0.98       1.0  T
   4   -138.5067250 -0.121353E-03  0.602E-03    0.98       1.9  T
   5   -138.5067278 -0.277015E-05  0.256E-03    0.98       4.4  T
   6   -138.5067282 -0.372437E-06  0.116E-03    0.98       9.6  T
   7   -138.5067282 -0.398779E-07  0.337E-04    0.98      33.2  T
   8   -138.5067282 -0.636652E-08  0.130E-04    0.98      85.8  T
     SCC iter.                  ...        0 min,  0.054 sec
     gradient                   ...        0 min,  0.055 sec
 * total energy  :  -136.2211150 Eh     change       -0.1341023E-02 Eh
   gradient norm :     0.0089590 Eh/α   predicted    -0.1297135E-02 (  -3.27%)
   displ. norm   :     0.7000377 α      lambda       -0.1531171E-02
   maximum displ.:     0.3093686 α      in ANC's #5, #7, #4, ...

........................................................................
.............................. CYCLE   19 ..............................
........................................................................

 iter      E             dE          RMSdq      gap      omega  full diag
   1   -138.5132004 -0.138513E+03  0.118E-01    0.98       0.0  T
   2   -138.5132143 -0.139252E-04  0.693E-02    0.99       1.0  T
   3   -138.5131400  0.742623E-04  0.328E-02    0.99       1.0  T
   4   -138.5132256 -0.855316E-04  0.387E-03    0.99       2.9  T
   5   -138.5132262 -0.686194E-06  0.162E-03    0.99       6.9  T
   6   -138.5132263 -0.380620E-07  0.964E-04    0.99      11.6  T
   7   -138.5132263 -0.512678E-07  0.323E-04    0.99      34.6  T
     SCC iter.                  ...        0 min,  0.047 sec
     gradient                   ...        0 min,  0.055 sec
 * total energy  :  -136.2223657 Eh     change       -0.1250789E-02 Eh
   gradient norm :     0.0081322 Eh/α   predicted    -0.1140764E-02 (  -8.80%)
   displ. norm   :     0.7095442 α      lambda       -0.1395843E-02
   maximum displ.:     0.3362001 α      in ANC's #5, #7, #1, ...

........................................................................
.............................. CYCLE   20 ..............................
........................................................................

 iter      E             dE          RMSdq      gap      omega  full diag
   1   -138.5182348 -0.138518E+03  0.101E-01    0.99       0.0  T
   2   -138.5182448 -0.994840E-05  0.599E-02    0.99       1.0  T
   3   -138.5181569  0.879401E-04  0.332E-02    1.00       1.0  T
   4   -138.5182555 -0.986064E-04  0.503E-03    1.00       2.2  T
   5   -138.5182575 -0.203249E-05  0.216E-03    1.00       5.2  T
   6   -138.5182578 -0.282216E-06  0.940E-04    1.00      11.9  T
   7   -138.5182578 -0.206821E-07  0.309E-04    1.00      36.2  T
     SCC iter.                  ...        0 min,  0.047 sec
     gradient                   ...        0 min,  0.055 sec
 * total energy  :  -136.2235146 Eh     change       -0.1148861E-02 Eh
   gradient norm :     0.0096584 Eh/α   predicted    -0.1049297E-02 (  -8.67%)
   displ. norm   :     0.7458097 α      lambda       -0.1462998E-02
   maximum displ.:     0.3521490 α      in ANC's #5, #7, #1, ...
 * RMSD in coord.:     1.3425982 α      energy gain  -0.3953870E+00 Eh

generating ANC from exact Hessian ...
Using Lindh-Hessian (1995)
 Shifting diagonal of input Hessian by    9.9480460056953941E-003
 Lowest  eigenvalues of input Hessian
    0.000000    0.000000    0.000000    0.000000    0.000000    0.000000
    0.010000    0.010068    0.010113    0.010213    0.010339    0.010480
    0.010629    0.010813    0.011060    0.011365    0.011848    0.012310
 Highest eigenvalues
    2.183296    2.206577    2.221203    2.287544    2.296382    2.341821


........................................................................
.............................. CYCLE   21 ..............................
........................................................................

 iter      E             dE          RMSdq      gap      omega  full diag
   1   -138.5170812 -0.138517E+03  0.113E-01    1.00       0.0  T
   2   -138.5170926 -0.114203E-04  0.667E-02    1.00       1.0  T
   3   -138.5169573  0.135345E-03  0.434E-02    1.00       1.0  T
   4   -138.5171156 -0.158254E-03  0.551E-03    1.00       2.0  T
   5   -138.5171178 -0.220742E-05  0.240E-03    1.00       4.7  T
   6   -138.5171181 -0.360813E-06  0.115E-03    1.00       9.7  T
   7   -138.5171182 -0.404957E-07  0.381E-04    1.00      29.3  T
   8   -138.5171182 -0.780781E-08  0.154E-04    1.00      72.6  T
     SCC iter.                  ...        0 min,  0.054 sec
     gradient                   ...        0 min,  0.055 sec
 * total energy  :  -136.2246012 Eh     change       -0.1086568E-02 Eh
   gradient norm :     0.0128978 Eh/α   predicted     0.0000000E+00 (-100.00%)
   displ. norm   :     0.1793758 α      lambda       -0.6092146E-03
   maximum displ.:     0.1144540 α      in ANC's #5, #7, #1, ...

........................................................................
.............................. CYCLE   22 ..............................
........................................................................

 iter      E             dE          RMSdq      gap      omega  full diag
   1   -138.5168270 -0.138517E+03  0.455E-02    1.00       0.0  T
   2   -138.5168284 -0.137592E-05  0.265E-02    1.00       1.0  T
   3   -138.5168192  0.921717E-05  0.122E-02    1.00       1.0  T
   4   -138.5168298 -0.105768E-04  0.115E-03    1.00       9.7  T
   5   -138.5168298 -0.205951E-07  0.757E-04    1.00      14.8  T
   6   -138.5168298 -0.239043E-07  0.327E-04    1.00      34.2  T
     SCC iter.                  ...        0 min,  0.041 sec
     gradient                   ...        0 min,  0.055 sec
 * total energy  :  -136.2250962 Eh     change       -0.4949939E-03 Eh
   gradient norm :     0.0061935 Eh/α   predicted    -0.3144157E-03 ( -36.48%)
   displ. norm   :     0.4263235 α      lambda       -0.9423053E-03
   maximum displ.:     0.2644033 α      in ANC's #5, #7, #1, ...

........................................................................
.............................. CYCLE   23 ..............................
........................................................................

 iter      E             dE          RMSdq      gap      omega  full diag
   1   -138.5154984 -0.138515E+03  0.830E-02    1.00       0.0  T
   2   -138.5155036 -0.517942E-05  0.483E-02    1.00       1.0  T
   3   -138.5154634  0.402651E-04  0.254E-02    1.00       1.0  T
   4   -138.5155096 -0.462776E-04  0.283E-03    1.00       4.0  T
   5   -138.5155098 -0.121388E-06  0.190E-03    1.00       5.9  T
   6   -138.5155100 -0.260661E-06  0.732E-04    1.00      15.3  T
   7   -138.5155100 -0.248981E-07  0.234E-04    1.00      47.7  T
     SCC iter.                  ...        0 min,  0.047 sec
     gradient                   ...        0 min,  0.066 sec
 * total energy  :  -136.2258460 Eh     change       -0.7498471E-03 Eh
   gradient norm :     0.0080334 Eh/α   predicted    -0.5567856E-03 ( -25.75%)
   displ. norm   :     0.5233563 α      lambda       -0.8406275E-03
   maximum displ.:     0.3218595 α      in ANC's #5, #1, #7, ...

........................................................................
.............................. CYCLE   24 ..............................
........................................................................

 iter      E             dE          RMSdq      gap      omega  full diag
   1   -138.5139770 -0.138514E+03  0.941E-02    0.99       0.0  T
   2   -138.5139836 -0.666269E-05  0.548E-02    0.99       1.0  T
   3   -138.5139343  0.493793E-04  0.279E-02    0.99       1.0  T
   4   -138.5139910 -0.567651E-04  0.310E-03    0.99       3.6  T
   5   -138.5139912 -0.156646E-06  0.204E-03    0.99       5.5  T
   6   -138.5139914 -0.265767E-06  0.890E-04    0.99      12.6  T
   7   -138.5139915 -0.441390E-07  0.236E-04    0.99      47.4  T
     SCC iter.                  ...        0 min,  0.046 sec
     gradient                   ...        0 min,  0.055 sec
 * total energy  :  -136.2265833 Eh     change       -0.7373271E-03 Eh
   gradient norm :     0.0128411 Eh/α   predicted    -0.5356513E-03 ( -27.35%)
   displ. norm   :     0.6011428 α      lambda       -0.9443968E-03
   maximum displ.:     0.3658391 α      in ANC's #5, #1, #7, ...

........................................................................
.............................. CYCLE   25 ..............................
........................................................................

 iter      E             dE          RMSdq      gap      omega  full diag
   1   -138.5135429 -0.138514E+03  0.101E-01    0.99       0.0  T
   2   -138.5135506 -0.761810E-05  0.589E-02    0.99       1.0  T
   3   -138.5134988  0.517833E-04  0.278E-02    0.98       1.0  T
   4   -138.5135577 -0.589726E-04  0.355E-03    0.98       3.1  T
   5   -138.5135581 -0.335509E-06  0.223E-03    0.99       5.0  T
   6   -138.5135584 -0.289366E-06  0.101E-03    0.99      11.1  T
   7   -138.5135584 -0.587130E-07  0.222E-04    0.99      50.4  T
   8   -138.5135584 -0.191628E-08  0.119E-04    0.99      93.7  T
     SCC iter.                  ...        0 min,  0.051 sec
     gradient                   ...        0 min,  0.055 sec
 * total energy  :  -136.2274508 Eh     change       -0.8674840E-03 Eh
   gradient norm :     0.0126758 Eh/α   predicted    -0.6428384E-03 ( -25.90%)
   displ. norm   :     0.6853820 α      lambda       -0.1129605E-02
   maximum displ.:     0.4187212 α      in ANC's #5, #1, #7, ...

........................................................................
.............................. CYCLE   26 ..............................
........................................................................

 iter      E             dE          RMSdq      gap      omega  full diag
   1   -138.5151246 -0.138515E+03  0.108E-01    0.98       0.0  T
   2   -138.5151328 -0.818611E-05  0.632E-02    0.98       1.0  T
   3   -138.5150837  0.490473E-04  0.263E-02    0.98       1.0  T
   4   -138.5151390 -0.552839E-04  0.396E-03    0.98       2.8  T
   5   -138.5151395 -0.536052E-06  0.237E-03    0.98       4.7  T
   6   -138.5151398 -0.305743E-06  0.107E-03    0.98      10.5  T
   7   -138.5151399 -0.688908E-07  0.215E-04    0.98      52.0  T
   8   -138.5151399 -0.150965E-08  0.122E-04    0.98      91.4  T
     SCC iter.                  ...        0 min,  0.051 sec
     gradient                   ...        0 min,  0.055 sec
 * total energy  :  -136.2284849 Eh     change       -0.1034040E-02 Eh
   gradient norm :     0.0090460 Eh/α   predicted    -0.8301179E-03 ( -19.72%)
   displ. norm   :     0.7543713 α      lambda       -0.1199516E-02
   maximum displ.:     0.4651757 α      in ANC's #5, #1, #7, ...

........................................................................
.............................. CYCLE   27 ..............................
........................................................................

 iter      E             dE          RMSdq      gap      omega  full diag
   1   -138.5178597 -0.138518E+03  0.113E-01    0.97       0.0  T
   2   -138.5178677 -0.801240E-05  0.659E-02    0.97       1.0  T
   3   -138.5178303  0.374153E-04  0.226E-02    0.97       1.0  T
   4   -138.5178726 -0.422891E-04  0.397E-03    0.97       2.8  T
   5   -138.5178731 -0.490982E-06  0.232E-03    0.97       4.8  T
   6   -138.5178733 -0.271876E-06  0.104E-03    0.97      10.7  T
   7   -138.5178734 -0.777973E-07  0.225E-04    0.97      49.7  T
   8   -138.5178734 -0.200902E-08  0.127E-04    0.97      88.4  T
     SCC iter.                  ...        0 min,  0.051 sec
     gradient                   ...        0 min,  0.055 sec
 * total energy  :  -136.2295716 Eh     change       -0.1086781E-02 Eh
   gradient norm :     0.0066303 Eh/α   predicted    -0.9410728E-03 ( -13.41%)
   displ. norm   :     0.7967636 α      lambda       -0.1145854E-02
   maximum displ.:     0.4929501 α      in ANC's #5, #1, #7, ...

........................................................................
.............................. CYCLE   28 ..............................
........................................................................

 iter      E             dE          RMSdq      gap      omega  full diag
   1   -138.5197864 -0.138520E+03  0.115E-01    0.96       0.0  T
   2   -138.5197939 -0.749813E-05  0.671E-02    0.96       1.0  T
   3   -138.5197686  0.252857E-04  0.189E-02    0.96       1.0  T
   4   -138.5197979 -0.293033E-04  0.365E-03    0.96       3.1  T
   5   -138.5197981 -0.244905E-06  0.211E-03    0.96       5.3  T
   6   -138.5197983 -0.196058E-06  0.992E-04    0.96      11.3  T
   7   -138.5197984 -0.868221E-07  0.242E-04    0.96      46.2  T
     SCC iter.                  ...        0 min,  0.045 sec
     gradient                   ...        0 min,  0.055 sec
 * total energy  :  -136.2306245 Eh     change       -0.1052825E-02 Eh
   gradient norm :     0.0081697 Eh/α   predicted    -0.9366477E-03 ( -11.03%)
   displ. norm   :     0.8184448 α      lambda       -0.1117314E-02
   maximum displ.:     0.5073783 α      in ANC's #5, #1, #7, ...

........................................................................
.............................. CYCLE   29 ..............................
........................................................................

 iter      E             dE          RMSdq      gap      omega  full diag
   1   -138.5214074 -0.138521E+03  0.116E-01    0.95       0.0  T
   2   -138.5214146 -0.719637E-05  0.671E-02    0.95       1.0  T
   3   -138.5213925  0.221156E-04  0.180E-02    0.95       1.0  T
   4   -138.5214187 -0.261822E-04  0.330E-03    0.95       3.4  T
   5   -138.5214189 -0.155025E-06  0.159E-03    0.95       7.1  T
   6   -138.5214189 -0.543254E-07  0.704E-04    0.95      15.9  T
   7   -138.5214190 -0.440039E-07  0.242E-04    0.95      46.2  T
     SCC iter.                  ...        0 min,  0.045 sec
     gradient                   ...        0 min,  0.055 sec
 * total energy  :  -136.2316659 Eh     change       -0.1041477E-02 Eh
   gradient norm :     0.0091554 Eh/α   predicted    -0.9328741E-03 ( -10.43%)
   displ. norm   :     0.8411606 α      lambda       -0.1131925E-02
   maximum displ.:     0.5221412 α      in ANC's #5, #1, #7, ...

........................................................................
.............................. CYCLE   30 ..............................
........................................................................

 iter      E             dE          RMSdq      gap      omega  full diag
   1   -138.5229285 -0.138523E+03  0.119E-01    0.94       0.0  T
   2   -138.5229360 -0.748246E-05  0.689E-02    0.94       1.0  T
   3   -138.5229050  0.309769E-04  0.207E-02    0.94       1.0  T
   4   -138.5229409 -0.358843E-04  0.344E-03    0.94       3.3  T
   5   -138.5229410 -0.103068E-06  0.186E-03    0.94       6.0  T
   6   -138.5229412 -0.149147E-06  0.984E-04    0.94      11.4  T
   7   -138.5229412 -0.777700E-07  0.241E-04    0.94      46.3  T
     SCC iter.                  ...        0 min,  0.045 sec
     gradient                   ...        0 min,  0.055 sec
 * total energy  :  -136.2327223 Eh     change       -0.1056348E-02 Eh
   gradient norm :     0.0079130 Eh/α   predicted    -0.9664260E-03 (  -8.51%)
   displ. norm   :     0.8614439 α      lambda       -0.1122883E-02
   maximum displ.:     0.5339230 α      in ANC's #5, #1, #7, ...

........................................................................
.............................. CYCLE   31 ..............................
........................................................................

 iter      E             dE          RMSdq      gap      omega  full diag
   1   -138.5237030 -0.138524E+03  0.124E-01    0.93       0.0  T
   2   -138.5237115 -0.849952E-05  0.719E-02    0.93       1.0  T
   3   -138.5236636  0.478636E-04  0.244E-02    0.93       1.0  T
   4   -138.5237177 -0.541471E-04  0.401E-03    0.93       2.8  T
   5   -138.5237179 -0.183614E-06  0.261E-03    0.93       4.3  T
   6   -138.5237184 -0.473704E-06  0.103E-03    0.93      10.9  T
   7   -138.5237185 -0.635458E-07  0.252E-04    0.93      44.3  T
   8   -138.5237185 -0.201919E-08  0.130E-04    0.93      86.1  T
     SCC iter.                  ...        0 min,  0.051 sec
     gradient                   ...        0 min,  0.066 sec
 * total energy  :  -136.2337605 Eh     change       -0.1038242E-02 Eh
   gradient norm :     0.0056687 Eh/α   predicted    -0.9780787E-03 (  -5.79%)
   displ. norm   :     0.8675588 α      lambda       -0.1053495E-02
   maximum displ.:     0.5337785 α      in ANC's #5, #1, #7, ...

........................................................................
.............................. CYCLE   32 ..............................
........................................................................

 iter      E             dE          RMSdq      gap      omega  full diag
   1   -138.5244483 -0.138524E+03  0.128E-01    0.92       0.0  T
   2   -138.5244568 -0.850478E-05  0.743E-02    0.92       1.0  T
   3   -138.5243899  0.669538E-04  0.273E-02    0.92       1.0  T
   4   -138.5244642 -0.743441E-04  0.450E-03    0.92       2.5  T
   5   -138.5244648 -0.562577E-06  0.283E-03    0.92       4.0  T
   6   -138.5244653 -0.505769E-06  0.105E-03    0.92      10.6  T
   7   -138.5244654 -0.574656E-07  0.259E-04    0.92      43.1  T
   8   -138.5244654 -0.206413E-08  0.140E-04    0.92      80.0  T
     SCC iter.                  ...        0 min,  0.056 sec
     gradient                   ...        0 min,  0.056 sec
 * total energy  :  -136.2347234 Eh     change       -0.9628327E-03 Eh
   gradient norm :     0.0053236 Eh/α   predicted    -0.9232117E-03 (  -4.12%)
   displ. norm   :     0.8695732 α      lambda       -0.9612410E-03
   maximum displ.:     0.5275601 α      in ANC's #5, #1, #7, ...

........................................................................
.............................. CYCLE   33 ..............................
........................................................................

 iter      E             dE          RMSdq      gap      omega  full diag
   1   -138.5233996 -0.138523E+03  0.130E-01    0.91       0.0  T
   2   -138.5234097 -0.100866E-04  0.755E-02    0.91       1.0  T
   3   -138.5233320  0.776794E-04  0.286E-02    0.91       1.0  T
   4   -138.5234181 -0.860964E-04  0.504E-03    0.91       2.2  T
   5   -138.5234191 -0.107678E-05  0.290E-03    0.91       3.9  T
   6   -138.5234196 -0.431094E-06  0.116E-03    0.91       9.6  T
   7   -138.5234197 -0.740013E-07  0.293E-04    0.91      38.2  T
   8   -138.5234197 -0.346054E-08  0.143E-04    0.91      78.3  T
     SCC iter.                  ...        0 min,  0.054 sec
     gradient                   ...        0 min,  0.056 sec
 * total energy  :  -136.2355906 Eh     change       -0.8672751E-03 Eh
   gradient norm :     0.0070791 Eh/α   predicted    -0.8440452E-03 (  -2.68%)
   displ. norm   :     0.8406251 α      lambda       -0.9160687E-03
   maximum displ.:     0.4938346 α      in ANC's #5, #1, #7, ...

........................................................................
.............................. CYCLE   34 ..............................
........................................................................

 iter      E             dE          RMSdq      gap      omega  full diag
   1   -138.5277112 -0.138528E+03  0.127E-01    0.92       0.0  T
   2   -138.5277198 -0.867631E-05  0.743E-02    0.91       1.0  T
   3   -138.5276276  0.922243E-04  0.302E-02    0.91       1.0  T
   4   -138.5277286 -0.100991E-03  0.525E-03    0.91       2.1  T
   5   -138.5277302 -0.156042E-05  0.266E-03    0.91       4.2  T
   6   -138.5277304 -0.267552E-06  0.117E-03    0.91       9.6  T
   7   -138.5277305 -0.719134E-07  0.293E-04    0.91      38.1  T
   8   -138.5277305 -0.426428E-08  0.146E-04    0.91      76.6  T
     SCC iter.                  ...        0 min,  0.054 sec
     gradient                   ...        0 min,  0.056 sec
 * total energy  :  -136.2363842 Eh     change       -0.7935147E-03 Eh
   gradient norm :     0.0067951 Eh/α   predicted    -0.7817059E-03 (  -1.49%)
   displ. norm   :     0.8568917 α      lambda       -0.8476850E-03
   maximum displ.:     0.4990711 α      in ANC's #5, #1, #7, ...

........................................................................
.............................. CYCLE   35 ..............................
........................................................................

 iter      E             dE          RMSdq      gap      omega  full diag
   1   -138.5211513 -0.138521E+03  0.136E-01    0.91       0.0  T
   2   -138.5211633 -0.119947E-04  0.789E-02    0.91       1.0  T
   3   -138.5211132  0.500817E-04  0.238E-02    0.90       1.0  T
   4   -138.5211702 -0.569798E-04  0.489E-03    0.91       2.3  T
   5   -138.5211710 -0.819020E-06  0.291E-03    0.91       3.8  T
   6   -138.5211714 -0.391247E-06  0.122E-03    0.91       9.2  T
   7   -138.5211715 -0.929834E-07  0.325E-04    0.91      34.4  T
   8   -138.5211715 -0.561886E-08  0.151E-04    0.91      74.2  T
     SCC iter.                  ...        0 min,  0.054 sec
     gradient                   ...        0 min,  0.056 sec
 * total energy  :  -136.2370968 Eh     change       -0.7126595E-03 Eh
   gradient norm :     0.0080142 Eh/α   predicted    -0.7350620E-03 (   3.14%)
   displ. norm   :     0.7457184 α      lambda       -0.8595432E-03
   maximum displ.:     0.4104694 α      in ANC's #1, #5, #10, ...

........................................................................
.............................. CYCLE   36 ..............................
........................................................................

 iter      E             dE          RMSdq      gap      omega  full diag
   1   -138.5307857 -0.138531E+03  0.113E-01    0.91       0.0  T
   2   -138.5307936 -0.798106E-05  0.661E-02    0.91       1.0  T
   3   -138.5307349  0.587368E-04  0.244E-02    0.91       1.0  T
   4   -138.5308006 -0.657414E-04  0.425E-03    0.91       2.6  T
   5   -138.5308013 -0.634383E-06  0.256E-03    0.91       4.4  T
   6   -138.5308016 -0.315809E-06  0.940E-04    0.91      11.9  T
   7   -138.5308016 -0.484351E-07  0.265E-04    0.91      42.2  T
     SCC iter.                  ...        0 min,  0.047 sec
     gradient                   ...        0 min,  0.056 sec
 * total energy  :  -136.2377396 Eh     change       -0.6428269E-03 Eh
   gradient norm :     0.0095969 Eh/α   predicted    -0.6687676E-03 (   4.04%)
   displ. norm   :     0.7605785 α      lambda       -0.7392585E-03
   maximum displ.:     0.4247046 α      in ANC's #1, #5, #10, ...

........................................................................
.............................. CYCLE   37 ..............................
........................................................................

 iter      E             dE          RMSdq      gap      omega  full diag
   1   -138.5296677 -0.138530E+03  0.119E-01    0.91       0.0  T
   2   -138.5296758 -0.808544E-05  0.691E-02    0.91       1.0  T
   3   -138.5296484  0.274059E-04  0.190E-02    0.91       1.0  T
   4   -138.5296806 -0.322022E-04  0.346E-03    0.91       3.2  T
   5   -138.5296807 -0.148620E-06  0.182E-03    0.91       6.1  T
   6   -138.5296809 -0.127718E-06  0.618E-04    0.91      18.1  T
   7   -138.5296809 -0.202535E-07  0.192E-04    0.91      58.3  T
     SCC iter.                  ...        0 min,  0.048 sec
     gradient                   ...        0 min,  0.056 sec
 * total energy  :  -136.2383783 Eh     change       -0.6386361E-03 Eh
   gradient norm :     0.0071573 Eh/α   predicted    -0.5834587E-03 (  -8.64%)
   displ. norm   :     0.7314704 α      lambda       -0.6685649E-03
   maximum displ.:     0.4325283 α      in ANC's #1, #5, #2, ...

........................................................................
.............................. CYCLE   38 ..............................
........................................................................

 iter      E             dE          RMSdq      gap      omega  full diag
   1   -138.5312813 -0.138531E+03  0.115E-01    0.91       0.0  T
   2   -138.5312905 -0.922648E-05  0.672E-02    0.91       1.0  T
   3   -138.5312594  0.311041E-04  0.208E-02    0.91       1.0  T
   4   -138.5312951 -0.357336E-04  0.404E-03    0.91       2.8  T
   5   -138.5312957 -0.511108E-06  0.231E-03    0.91       4.8  T
   6   -138.5312959 -0.216688E-06  0.997E-04    0.91      11.2  T
   7   -138.5312960 -0.841815E-07  0.341E-04    0.91      32.8  T
     SCC iter.                  ...        0 min,  0.056 sec
     gradient                   ...        0 min,  0.056 sec
 * total energy  :  -136.2389209 Eh     change       -0.5425842E-03 Eh
   gradient norm :     0.0093428 Eh/α   predicted    -0.5131433E-03 (  -5.43%)
   displ. norm   :     0.7117059 α      lambda       -0.6844975E-03
   maximum displ.:     0.4353290 α      in ANC's #1, #5, #2, ...

........................................................................
.............................. CYCLE   39 ..............................
........................................................................

 iter      E             dE          RMSdq      gap      omega  full diag
   1   -138.5324658 -0.138532E+03  0.113E-01    0.90       0.0  T
   2   -138.5324755 -0.976577E-05  0.656E-02    0.90       1.0  T
   3   -138.5324383  0.372220E-04  0.218E-02    0.90       1.0  T
   4   -138.5324804 -0.421144E-04  0.450E-03    0.90       2.5  T
   5   -138.5324813 -0.838545E-06  0.238E-03    0.90       4.7  T
   6   -138.5324815 -0.215798E-06  0.110E-03    0.90      10.2  T
   7   -138.5324816 -0.960453E-07  0.313E-04    0.90      35.8  T
   8   -138.5324816 -0.737873E-08  0.121E-04    0.90      92.2  T
     SCC iter.                  ...        0 min,  0.052 sec
     gradient                   ...        0 min,  0.056 sec
 * total energy  :  -136.2394200 Eh     change       -0.4991143E-03 Eh
   gradient norm :     0.0086998 Eh/α   predicted    -0.5156102E-03 (   3.31%)
   displ. norm   :     0.6738275 α      lambda       -0.5332947E-03
   maximum displ.:     0.4163654 α      in ANC's #1, #5, #2, ...

........................................................................
.............................. CYCLE   40 ..............................
........................................................................

 iter      E             dE          RMSdq      gap      omega  full diag
   1   -138.5297031 -0.138530E+03  0.104E-01    0.90       0.0  T
   2   -138.5297106 -0.758505E-05  0.604E-02    0.90       1.0  T
   3   -138.5296897  0.209427E-04  0.170E-02    0.90       1.0  T
   4   -138.5297143 -0.245929E-04  0.347E-03    0.90       3.2  T
   5   -138.5297146 -0.331074E-06  0.193E-03    0.90       5.8  T
   6   -138.5297147 -0.108261E-06  0.919E-04    0.90      12.2  T
   7   -138.5297148 -0.719673E-07  0.258E-04    0.90      43.4  T
     SCC iter.                  ...        0 min,  0.045 sec
     gradient                   ...        0 min,  0.056 sec
 * total energy  :  -136.2398502 Eh     change       -0.4302565E-03 Eh
   gradient norm :     0.0063422 Eh/α   predicted    -0.3877222E-03 (  -9.89%)
   displ. norm   :     0.5544014 α      lambda       -0.4822304E-03
   maximum displ.:     0.3848814 α      in ANC's #1, #2, #5, ...

........................................................................
.............................. CYCLE   41 ..............................
........................................................................

 iter      E             dE          RMSdq      gap      omega  full diag
   1   -138.5380628 -0.138538E+03  0.858E-02    0.90       0.0  T
   2   -138.5380698 -0.701028E-05  0.500E-02    0.90       1.0  T
   3   -138.5380452  0.246531E-04  0.177E-02    0.90       1.0  T
   4   -138.5380726 -0.274378E-04  0.404E-03    0.90       2.8  T
   5   -138.5380737 -0.113679E-05  0.191E-03    0.90       5.9  T
   6   -138.5380739 -0.162166E-06  0.881E-04    0.90      12.7  T
   7   -138.5380739 -0.436287E-07  0.230E-04    0.90      48.6  T
     SCC iter.                  ...        0 min,  0.045 sec
     gradient                   ...        0 min,  0.056 sec
 * total energy  :  -136.2401778 Eh     change       -0.3275428E-03 Eh
   gradient norm :     0.0070870 Eh/α   predicted    -0.3152260E-03 (  -3.76%)
   displ. norm   :     0.5838922 α      lambda       -0.3738524E-03
   maximum displ.:     0.3838004 α      in ANC's #1, #5, #2, ...

........................................................................
.............................. CYCLE   42 ..............................
........................................................................

 iter      E             dE          RMSdq      gap      omega  full diag
   1   -138.5349593 -0.138535E+03  0.894E-02    0.90       0.0  T
   2   -138.5349660 -0.669249E-05  0.519E-02    0.90       1.0  T
   3   -138.5349539  0.121025E-04  0.133E-02    0.90       1.0  T
   4   -138.5349686 -0.146678E-04  0.303E-03    0.90       3.7  T
   5   -138.5349688 -0.277085E-06  0.166E-03    0.90       6.7  T
   6   -138.5349689 -0.855484E-07  0.935E-04    0.90      12.0  T
   7   -138.5349690 -0.773803E-07  0.211E-04    0.90      53.0  T
     SCC iter.                  ...        0 min,  0.045 sec
     gradient                   ...        0 min,  0.056 sec
 * total energy  :  -136.2404618 Eh     change       -0.2840571E-03 Eh
   gradient norm :     0.0057624 Eh/α   predicted    -0.2506560E-03 ( -11.76%)
   displ. norm   :     0.4397598 α      lambda       -0.2910773E-03
   maximum displ.:     0.3010498 α      in ANC's #1, #5, #2, ...
 * RMSD in coord.:     1.6009906 α      energy gain  -0.1694723E-01 Eh

generating ANC from exact Hessian ...
Using Lindh-Hessian (1995)
 Shifting diagonal of input Hessian by    9.9509416966942731E-003
 Lowest  eigenvalues of input Hessian
    0.000000    0.000000    0.000000    0.000000    0.000000    0.000000
    0.010000    0.010117    0.010145    0.010355    0.010392    0.010515
    0.010775    0.011082    0.011183    0.011645    0.011860    0.012663
 Highest eigenvalues
    2.182882    2.211815    2.227430    2.290169    2.290448    2.350888


........................................................................
.............................. CYCLE   43 ..............................
........................................................................

 iter      E             dE          RMSdq      gap      omega  full diag
   1   -138.5322323 -0.138532E+03  0.634E-02    0.90       0.0  T
   2   -138.5322359 -0.361898E-05  0.369E-02    0.90       1.0  T
   3   -138.5322226  0.133360E-04  0.138E-02    0.89       1.0  T
   4   -138.5322381 -0.155138E-04  0.215E-03    0.90       5.2  T
   5   -138.5322383 -0.184979E-06  0.104E-03    0.90      10.7  T
   6   -138.5322383 -0.126875E-07  0.593E-04    0.90      18.8  T
   7   -138.5322383 -0.254151E-07  0.183E-04    0.90      61.0  T
     SCC iter.                  ...        0 min,  0.045 sec
     gradient                   ...        0 min,  0.056 sec
 * total energy  :  -136.2406555 Eh     change       -0.1936554E-03 Eh
   gradient norm :     0.0062975 Eh/α   predicted     0.0000000E+00 (-100.00%)
   displ. norm   :     0.0777633 α      lambda       -0.1367315E-03
   maximum displ.:     0.0408758 α      in ANC's #3, #1, #7, ...

........................................................................
.............................. CYCLE   44 ..............................
........................................................................

 iter      E             dE          RMSdq      gap      omega  full diag
   1   -138.5346690 -0.138535E+03  0.178E-02    0.90       0.0  T
   2   -138.5346693 -0.311060E-06  0.105E-02    0.90       1.1  T
   3   -138.5346654  0.385903E-05  0.685E-03    0.90       1.6  T
   4   -138.5346698 -0.431892E-05  0.133E-03    0.90       8.4  T
   5   -138.5346699 -0.155267E-06  0.390E-04    0.90      28.7  T
   6   -138.5346699 -0.510036E-08  0.206E-04    0.90      54.2  T
     SCC iter.                  ...        0 min,  0.039 sec
     gradient                   ...        0 min,  0.056 sec
 * total energy  :  -136.2407647 Eh     change       -0.1092421E-03 Eh
   gradient norm :     0.0025179 Eh/α   predicted    -0.6950142E-04 ( -36.38%)
   displ. norm   :     0.1856603 α      lambda       -0.1762874E-03
   maximum displ.:     0.1007176 α      in ANC's #3, #1, #7, ...

........................................................................
.............................. CYCLE   45 ..............................
........................................................................

 iter      E             dE          RMSdq      gap      omega  full diag
   1   -138.5370414 -0.138537E+03  0.348E-02    0.90       0.0  T
   2   -138.5370421 -0.717466E-06  0.204E-02    0.90       1.0  T
   3   -138.5370294  0.127223E-04  0.121E-02    0.90       1.0  T
   4   -138.5370434 -0.140062E-04  0.199E-03    0.90       5.6  T
   5   -138.5370437 -0.322636E-06  0.693E-04    0.90      16.1  T
   6   -138.5370437 -0.129999E-07  0.352E-04    0.90      31.8  T
     SCC iter.                  ...        0 min,  0.049 sec
     gradient                   ...        0 min,  0.056 sec
 * total energy  :  -136.2408929 Eh     change       -0.1281948E-03 Eh
   gradient norm :     0.0032529 Eh/α   predicted    -0.9118324E-04 ( -28.87%)
   displ. norm   :     0.2162783 α      lambda       -0.1306916E-03
   maximum displ.:     0.1202910 α      in ANC's #3, #1, #7, ...

........................................................................
.............................. CYCLE   46 ..............................
........................................................................

 iter      E             dE          RMSdq      gap      omega  full diag
   1   -138.5375561 -0.138538E+03  0.359E-02    0.90       0.0  T
   2   -138.5375565 -0.462151E-06  0.209E-02    0.90       1.0  T
   3   -138.5375474  0.910735E-05  0.994E-03    0.90       1.1  T
   4   -138.5375573 -0.990608E-05  0.146E-03    0.90       7.7  T
   5   -138.5375575 -0.146439E-06  0.638E-04    0.90      17.5  T
   6   -138.5375575 -0.796877E-08  0.294E-04    0.90      38.1  T
     SCC iter.                  ...        0 min,  0.038 sec
     gradient                   ...        0 min,  0.056 sec
 * total energy  :  -136.2410033 Eh     change       -0.1103243E-03 Eh
   gradient norm :     0.0050926 Eh/α   predicted    -0.6840251E-04 ( -38.00%)
   displ. norm   :     0.2931918 α      lambda       -0.1725918E-03
   maximum displ.:     0.1647903 α      in ANC's #3, #1, #7, ...

........................................................................
.............................. CYCLE   47 ..............................
........................................................................

 iter      E             dE          RMSdq      gap      omega  full diag
   1   -138.5367807 -0.138537E+03  0.448E-02    0.90       0.0  T
   2   -138.5367814 -0.682500E-06  0.261E-02    0.90       1.0  T
   3   -138.5367752  0.617583E-05  0.835E-03    0.90       1.3  T
   4   -138.5367820 -0.679645E-05  0.137E-03    0.90       8.1  T
   5   -138.5367821 -0.889934E-07  0.761E-04    0.90      14.7  T
   6   -138.5367821 -0.159528E-07  0.317E-04    0.90      35.3  T
     SCC iter.                  ...        0 min,  0.038 sec
     gradient                   ...        0 min,  0.056 sec
 * total energy  :  -136.2411559 Eh     change       -0.1526698E-03 Eh
   gradient norm :     0.0049518 Eh/α   predicted    -0.9371426E-04 ( -38.62%)
   displ. norm   :     0.4008278 α      lambda       -0.2309244E-03
   maximum displ.:     0.2291803 α      in ANC's #3, #1, #7, ...

........................................................................
.............................. CYCLE   48 ..............................
........................................................................

 iter      E             dE          RMSdq      gap      omega  full diag
   1   -138.5350925 -0.138535E+03  0.565E-02    0.90       0.0  T
   2   -138.5350938 -0.120384E-05  0.329E-02    0.90       1.0  T
   3   -138.5350899  0.387918E-05  0.686E-03    0.89       1.6  T
   4   -138.5350944 -0.453688E-05  0.142E-03    0.90       7.9  T
   5   -138.5350945 -0.518478E-07  0.783E-04    0.90      14.3  T
   6   -138.5350945 -0.785940E-08  0.366E-04    0.90      30.6  T
     SCC iter.                  ...        0 min,  0.038 sec
     gradient                   ...        0 min,  0.056 sec
 * total energy  :  -136.2413574 Eh     change       -0.2014745E-03 Eh
   gradient norm :     0.0035449 Eh/α   predicted    -0.1340132E-03 ( -33.48%)
   displ. norm   :     0.4726074 α      lambda       -0.2480033E-03
   maximum displ.:     0.2750352 α      in ANC's #3, #1, #7, ...

........................................................................
.............................. CYCLE   49 ..............................
........................................................................

 iter      E             dE          RMSdq      gap      omega  full diag
   1   -138.5333908 -0.138533E+03  0.613E-02    0.89       0.0  T
   2   -138.5333923 -0.154864E-05  0.357E-02    0.89       1.0  T
   3   -138.5333857  0.665212E-05  0.820E-03    0.89       1.4  T
   4   -138.5333932 -0.747508E-05  0.177E-03    0.89       6.3  T
   5   -138.5333933 -0.156153E-06  0.947E-04    0.89      11.8  T
   6   -138.5333933 -0.227203E-07  0.519E-04    0.89      21.5  T
     SCC iter.                  ...        0 min,  0.038 sec
     gradient                   ...        0 min,  0.056 sec
 * total energy  :  -136.2415739 Eh     change       -0.2164655E-03 Eh
   gradient norm :     0.0029826 Eh/α   predicted    -0.1516989E-03 ( -29.92%)
   displ. norm   :     0.5019339 α      lambda       -0.2474889E-03
   maximum displ.:     0.2962824 α      in ANC's #3, #1, #7, ...

........................................................................
.............................. CYCLE   50 ..............................
........................................................................

 iter      E             dE          RMSdq      gap      omega  full diag
   1   -138.5324184 -0.138532E+03  0.601E-02    0.89       0.0  T
   2   -138.5324200 -0.158900E-05  0.351E-02    0.89       1.0  T
   3   -138.5324066  0.133368E-04  0.112E-02    0.89       1.0  T
   4   -138.5324211 -0.144811E-04  0.219E-03    0.89       5.1  T
   5   -138.5324214 -0.348165E-06  0.100E-03    0.89      11.1  T
   6   -138.5324215 -0.347293E-07  0.511E-04    0.89      21.9  T
   7   -138.5324215 -0.982780E-08  0.146E-04    0.89      76.4  T
     SCC iter.                  ...        0 min,  0.054 sec
     gradient                   ...        0 min,  0.056 sec
 * total energy  :  -136.2417942 Eh     change       -0.2203105E-03 Eh
   gradient norm :     0.0036872 Eh/α   predicted    -0.1549211E-03 ( -29.68%)
   displ. norm   :     0.5376478 α      lambda       -0.2652837E-03
   maximum displ.:     0.3205153 α      in ANC's #3, #1, #7, ...

........................................................................
.............................. CYCLE   51 ..............................
........................................................................

 iter      E             dE          RMSdq      gap      omega  full diag
   1   -138.5323956 -0.138532E+03  0.600E-02    0.89       0.0  T
   2   -138.5323973 -0.175338E-05  0.350E-02    0.89       1.0  T
   3   -138.5323779  0.193914E-04  0.136E-02    0.89       1.0  T
   4   -138.5323989 -0.209873E-04  0.250E-03    0.89       4.5  T
   5   -138.5323994 -0.506917E-06  0.102E-03    0.89      11.0  T
   6   -138.5323995 -0.378649E-07  0.520E-04    0.89      21.5  T
   7   -138.5323995 -0.803632E-08  0.162E-04    0.89      68.9  T
     SCC iter.                  ...        0 min,  0.047 sec
     gradient                   ...        0 min,  0.067 sec
 * total energy  :  -136.2420328 Eh     change       -0.2386279E-03 Eh
   gradient norm :     0.0042282 Eh/α   predicted    -0.1709921E-03 ( -28.34%)
   displ. norm   :     0.5937994 α      lambda       -0.2927969E-03
   maximum displ.:     0.3556218 α      in ANC's #1, #3, #7, ...

........................................................................
.............................. CYCLE   52 ..............................
........................................................................

 iter      E             dE          RMSdq      gap      omega  full diag
   1   -138.5330648 -0.138533E+03  0.630E-02    0.89       0.0  T
   2   -138.5330670 -0.214369E-05  0.368E-02    0.89       1.0  T
   3   -138.5330459  0.210735E-04  0.145E-02    0.89       1.0  T
   4   -138.5330688 -0.228609E-04  0.269E-03    0.89       4.2  T
   5   -138.5330694 -0.597656E-06  0.110E-03    0.89      10.2  T
   6   -138.5330694 -0.469618E-07  0.554E-04    0.89      20.2  T
   7   -138.5330694 -0.855042E-08  0.182E-04    0.89      61.4  T
     SCC iter.                  ...        0 min,  0.050 sec
     gradient                   ...        0 min,  0.057 sec
 * total energy  :  -136.2422946 Eh     change       -0.2617806E-03 Eh
   gradient norm :     0.0040357 Eh/α   predicted    -0.1980185E-03 ( -24.36%)
   displ. norm   :     0.6424073 α      lambda       -0.2999008E-03
   maximum displ.:     0.3897427 α      in ANC's #1, #3, #2, ...

........................................................................
.............................. CYCLE   53 ..............................
........................................................................

 iter      E             dE          RMSdq      gap      omega  full diag
   1   -138.5339584 -0.138534E+03  0.666E-02    0.89       0.0  T
   2   -138.5339608 -0.247252E-05  0.388E-02    0.89       1.0  T
   3   -138.5339441  0.167077E-04  0.131E-02    0.89       1.0  T
   4   -138.5339624 -0.182662E-04  0.258E-03    0.89       4.3  T
   5   -138.5339629 -0.494654E-06  0.119E-03    0.89       9.4  T
   6   -138.5339629 -0.583465E-07  0.590E-04    0.89      19.0  T
   7   -138.5339630 -0.114896E-07  0.193E-04    0.89      58.0  T
     SCC iter.                  ...        0 min,  0.048 sec
     gradient                   ...        0 min,  0.056 sec
 * total energy  :  -136.2425599 Eh     change       -0.2653474E-03 Eh
   gradient norm :     0.0032717 Eh/α   predicted    -0.2118335E-03 ( -20.17%)
   displ. norm   :     0.6558095 α      lambda       -0.2773028E-03
   maximum displ.:     0.4035831 α      in ANC's #1, #3, #2, ...

........................................................................
.............................. CYCLE   54 ..............................
........................................................................

 iter      E             dE          RMSdq      gap      omega  full diag
   1   -138.5347827 -0.138535E+03  0.678E-02    0.90       0.0  T
   2   -138.5347851 -0.245128E-05  0.395E-02    0.89       1.0  T
   3   -138.5347763  0.887640E-05  0.101E-02    0.89       1.1  T
   4   -138.5347863 -0.100532E-04  0.214E-03    0.89       5.2  T
   5   -138.5347865 -0.224828E-06  0.117E-03    0.89       9.5  T
   6   -138.5347866 -0.492325E-07  0.599E-04    0.89      18.7  T
   7   -138.5347866 -0.186991E-07  0.187E-04    0.89      59.9  T
     SCC iter.                  ...        0 min,  0.048 sec
     gradient                   ...        0 min,  0.057 sec
 * total energy  :  -136.2428047 Eh     change       -0.2447277E-03 Eh
   gradient norm :     0.0026383 Eh/α   predicted    -0.1982840E-03 ( -18.98%)
   displ. norm   :     0.6340923 α      lambda       -0.2427574E-03
   maximum displ.:     0.3965635 α      in ANC's #1, #3, #2, ...

........................................................................
.............................. CYCLE   55 ..............................
........................................................................

 iter      E             dE          RMSdq      gap      omega  full diag
   1   -138.5354834 -0.138535E+03  0.664E-02    0.90       0.0  T
   2   -138.5354855 -0.212607E-05  0.386E-02    0.90       1.0  T
   3   -138.5354817  0.385856E-05  0.752E-03    0.90       1.5  T
   4   -138.5354865 -0.477384E-05  0.176E-03    0.90       6.3  T
   5   -138.5354865 -0.761612E-07  0.917E-04    0.90      12.2  T
   6   -138.5354865 -0.138064E-07  0.377E-04    0.90      29.6  T
     SCC iter.                  ...        0 min,  0.041 sec
     gradient                   ...        0 min,  0.056 sec
 * total energy  :  -136.2430203 Eh     change       -0.2156430E-03 Eh
   gradient norm :     0.0025678 Eh/α   predicted    -0.1701848E-03 ( -21.08%)
   displ. norm   :     0.5962551 α      lambda       -0.2120149E-03
   maximum displ.:     0.3793482 α      in ANC's #1, #3, #2, ...

........................................................................
.............................. CYCLE   56 ..............................
........................................................................

 iter      E             dE          RMSdq      gap      omega  full diag
   1   -138.5359872 -0.138536E+03  0.638E-02    0.90       0.0  T
   2   -138.5359889 -0.172537E-05  0.370E-02    0.90       1.0  T
   3   -138.5359856  0.329369E-05  0.692E-03    0.90       1.6  T
   4   -138.5359896 -0.398947E-05  0.187E-03    0.90       6.0  T
   5   -138.5359897 -0.980395E-07  0.110E-03    0.90      10.1  T
   6   -138.5359898 -0.538656E-07  0.450E-04    0.90      24.8  T
   7   -138.5359898 -0.147639E-07  0.140E-04    0.90      80.0  T
     SCC iter.                  ...        0 min,  0.048 sec
     gradient                   ...        0 min,  0.056 sec
 * total energy  :  -136.2432100 Eh     change       -0.1897409E-03 Eh
   gradient norm :     0.0026022 Eh/α   predicted    -0.1436990E-03 ( -24.27%)
   displ. norm   :     0.5521266 α      lambda       -0.1862272E-03
   maximum displ.:     0.3576519 α      in ANC's #1, #3, #2, ...

........................................................................
.............................. CYCLE   57 ..............................
........................................................................

 iter      E             dE          RMSdq      gap      omega  full diag
   1   -138.5363449 -0.138536E+03  0.608E-02    0.90       0.0  T
   2   -138.5363462 -0.136208E-05  0.353E-02    0.90       1.0  T
   3   -138.5363414  0.480546E-05  0.757E-03    0.90       1.5  T
   4   -138.5363469 -0.547496E-05  0.186E-03    0.90       6.0  T
   5   -138.5363470 -0.133898E-06  0.106E-03    0.90      10.6  T
   6   -138.5363471 -0.491608E-07  0.317E-04    0.90      35.3  T
   7   -138.5363471 -0.522226E-08  0.114E-04    0.90      98.2  T
     SCC iter.                  ...        0 min,  0.056 sec
     gradient                   ...        0 min,  0.056 sec
 * total energy  :  -136.2433773 Eh     change       -0.1672863E-03 Eh
   gradient norm :     0.0023873 Eh/α   predicted    -0.1215006E-03 ( -27.37%)
   displ. norm   :     0.5119791 α      lambda       -0.1640782E-03
   maximum displ.:     0.3373860 α      in ANC's #1, #3, #2, ...

........................................................................
.............................. CYCLE   58 ..............................
........................................................................

 iter      E             dE          RMSdq      gap      omega  full diag
   1   -138.5365707 -0.138537E+03  0.580E-02    0.91       0.0  T
   2   -138.5365718 -0.109633E-05  0.337E-02    0.91       1.0  T
   3   -138.5365661  0.566012E-05  0.782E-03    0.90       1.4  T
   4   -138.5365725 -0.631807E-05  0.175E-03    0.90       6.4  T
   5   -138.5365726 -0.126230E-06  0.970E-04    0.90      11.5  T
   6   -138.5365726 -0.375466E-07  0.252E-04    0.90      44.4  T
     SCC iter.                  ...        0 min,  0.045 sec
     gradient                   ...        0 min,  0.057 sec
 * total energy  :  -136.2435253 Eh     change       -0.1479944E-03 Eh
   gradient norm :     0.0020872 Eh/α   predicted    -0.1035489E-03 ( -30.03%)
   displ. norm   :     0.4795816 α      lambda       -0.1474605E-03
   maximum displ.:     0.3210025 α      in ANC's #1, #3, #2, ...

........................................................................
.............................. CYCLE   59 ..............................
........................................................................

 iter      E             dE          RMSdq      gap      omega  full diag
   1   -138.5367979 -0.138537E+03  0.557E-02    0.91       0.0  T
   2   -138.5367988 -0.912632E-06  0.324E-02    0.91       1.0  T
   3   -138.5367937  0.509538E-05  0.729E-03    0.90       1.5  T
   4   -138.5367994 -0.567257E-05  0.161E-03    0.91       6.9  T
   5   -138.5367995 -0.104611E-06  0.897E-04    0.91      12.5  T
   6   -138.5367995 -0.323556E-07  0.250E-04    0.91      44.7  T
     SCC iter.                  ...        0 min,  0.038 sec
     gradient                   ...        0 min,  0.056 sec
 * total energy  :  -136.2436596 Eh     change       -0.1342716E-03 Eh
   gradient norm :     0.0020187 Eh/α   predicted    -0.9068863E-04 ( -32.46%)
   displ. norm   :     0.4620821 α      lambda       -0.1406528E-03
   maximum displ.:     0.3132171 α      in ANC's #1, #3, #2, ...

........................................................................
.............................. CYCLE   60 ..............................
........................................................................

 iter      E             dE          RMSdq      gap      omega  full diag
   1   -138.5370371 -0.138537E+03  0.550E-02    0.91       0.0  T
   2   -138.5370379 -0.809536E-06  0.320E-02    0.91       1.0  T
   3   -138.5370342  0.366003E-05  0.627E-03    0.90       1.8  T
   4   -138.5370384 -0.413643E-05  0.146E-03    0.90       7.6  T
   5   -138.5370384 -0.690461E-07  0.870E-04    0.90      12.9  T
   6   -138.5370385 -0.357281E-07  0.278E-04    0.90      40.3  T
     SCC iter.                  ...        0 min,  0.039 sec
     gradient                   ...        0 min,  0.058 sec
 * total energy  :  -136.2437895 Eh     change       -0.1298777E-03 Eh
   gradient norm :     0.0021327 Eh/α   predicted    -0.8534298E-04 ( -34.29%)
   displ. norm   :     0.4756582 α      lambda       -0.1479737E-03
   maximum displ.:     0.3255514 α      in ANC's #1, #3, #2, ...

........................................................................
.............................. CYCLE   61 ..............................
........................................................................

 iter      E             dE          RMSdq      gap      omega  full diag
   1   -138.5372825 -0.138537E+03  0.580E-02    0.90       0.0  T
   2   -138.5372834 -0.868599E-06  0.337E-02    0.90       1.0  T
   3   -138.5372812  0.213538E-05  0.518E-03    0.90       2.2  T
   4   -138.5372838 -0.258096E-05  0.134E-03    0.90       8.3  T
   5   -138.5372838 -0.226297E-07  0.852E-04    0.90      13.1  T
   6   -138.5372839 -0.407004E-07  0.311E-04    0.90      36.0  T
     SCC iter.                  ...        0 min,  0.037 sec
     gradient                   ...        0 min,  0.056 sec
 * total energy  :  -136.2439275 Eh     change       -0.1379882E-03 Eh
   gradient norm :     0.0023105 Eh/α   predicted    -0.9072725E-04 ( -34.25%)
   displ. norm   :     0.5174332 α      lambda       -0.1660721E-03
   maximum displ.:     0.3569993 α      in ANC's #1, #3, #2, ...

........................................................................
.............................. CYCLE   62 ..............................
........................................................................

 iter      E             dE          RMSdq      gap      omega  full diag
   1   -138.5375096 -0.138538E+03  0.646E-02    0.90       0.0  T
   2   -138.5375106 -0.104819E-05  0.376E-02    0.90       1.0  T
   3   -138.5375084  0.221973E-05  0.562E-03    0.90       2.0  T
   4   -138.5375112 -0.277568E-05  0.136E-03    0.90       8.2  T
   5   -138.5375112 -0.207513E-07  0.749E-04    0.90      14.9  T
   6   -138.5375112 -0.177110E-07  0.258E-04    0.90      43.3  T
     SCC iter.                  ...        0 min,  0.038 sec
     gradient                   ...        0 min,  0.056 sec
 * total energy  :  -136.2440829 Eh     change       -0.1554119E-03 Eh
   gradient norm :     0.0023964 Eh/α   predicted    -0.1052689E-03 ( -32.26%)
   displ. norm   :     0.5727189 α      lambda       -0.1880624E-03
   maximum displ.:     0.3977229 α      in ANC's #1, #3, #2, ...

........................................................................
.............................. CYCLE   63 ..............................
........................................................................

 iter      E             dE          RMSdq      gap      omega  full diag
   1   -138.5376239 -0.138538E+03  0.731E-02    0.90       0.0  T
   2   -138.5376253 -0.141704E-05  0.426E-02    0.90       1.0  T
   3   -138.5376205  0.479923E-05  0.778E-03    0.90       1.4  T
   4   -138.5376261 -0.557279E-05  0.173E-03    0.90       6.4  T
   5   -138.5376261 -0.657595E-07  0.106E-03    0.90      10.5  T
   6   -138.5376262 -0.494840E-07  0.429E-04    0.90      26.0  T
   7   -138.5376262 -0.137465E-07  0.125E-04    0.90      89.2  T
     SCC iter.                  ...        0 min,  0.044 sec
     gradient                   ...        0 min,  0.056 sec
 * total energy  :  -136.2442588 Eh     change       -0.1759217E-03 Eh
   gradient norm :     0.0025940 Eh/α   predicted    -0.1248752E-03 ( -29.02%)
   displ. norm   :     0.6070662 α      lambda       -0.2063460E-03
   maximum displ.:     0.4249449 α      in ANC's #1, #2, #3, ...

........................................................................
.............................. CYCLE   64 ..............................
........................................................................

 iter      E             dE          RMSdq      gap      omega  full diag
   1   -138.5379749 -0.138538E+03  0.793E-02    0.90       0.0  T
   2   -138.5379766 -0.166104E-05  0.463E-02    0.90       1.0  T
   3   -138.5379660  0.105694E-04  0.109E-02    0.90       1.0  T
   4   -138.5379777 -0.116972E-04  0.204E-03    0.90       5.5  T
   5   -138.5379778 -0.165256E-06  0.119E-03    0.90       9.4  T
   6   -138.5379779 -0.617103E-07  0.479E-04    0.90      23.3  T
   7   -138.5379779 -0.119754E-07  0.143E-04    0.90      78.3  T
     SCC iter.                  ...        0 min,  0.044 sec
     gradient                   ...        0 min,  0.056 sec
 * total energy  :  -136.2444511 Eh     change       -0.1923284E-03 Eh
   gradient norm :     0.0027977 Eh/α   predicted    -0.1411996E-03 ( -26.58%)
   displ. norm   :     0.6535873 α      lambda       -0.2278425E-03
   maximum displ.:     0.4587671 α      in ANC's #1, #2, #3, ...

........................................................................
.............................. CYCLE   65 ..............................
........................................................................

 iter      E             dE          RMSdq      gap      omega  full diag
   1   -138.5378064 -0.138538E+03  0.881E-02    0.89       0.0  T
   2   -138.5378086 -0.228286E-05  0.514E-02    0.89       1.0  T
   3   -138.5377921  0.165844E-04  0.134E-02    0.89       1.0  T
   4   -138.5378103 -0.182237E-04  0.237E-03    0.89       4.7  T
   5   -138.5378105 -0.247426E-06  0.136E-03    0.89       8.2  T
   6   -138.5378106 -0.846505E-07  0.551E-04    0.89      20.3  T
   7   -138.5378106 -0.138642E-07  0.148E-04    0.89      75.3  T
     SCC iter.                  ...        0 min,  0.044 sec
     gradient                   ...        0 min,  0.056 sec
 * total energy  :  -136.2446638 Eh     change       -0.2126861E-03 Eh
   gradient norm :     0.0031644 Eh/α   predicted    -0.1625866E-03 ( -23.56%)
   displ. norm   :     0.6877832 α      lambda       -0.2505632E-03
   maximum displ.:     0.4845356 α      in ANC's #1, #2, #3, ...

........................................................................
.............................. CYCLE   66 ..............................
........................................................................

 iter      E             dE          RMSdq      gap      omega  full diag
   1   -138.5381705 -0.138538E+03  0.936E-02    0.89       0.0  T
   2   -138.5381731 -0.264508E-05  0.547E-02    0.89       1.0  T
   3   -138.5381506  0.224719E-04  0.155E-02    0.89       1.0  T
   4   -138.5381752 -0.245155E-04  0.261E-03    0.89       4.3  T
   5   -138.5381755 -0.343624E-06  0.147E-03    0.89       7.6  T
   6   -138.5381756 -0.105556E-06  0.610E-04    0.89      18.3  T
   7   -138.5381756 -0.147197E-07  0.172E-04    0.89      64.9  T
     SCC iter.                  ...        0 min,  0.044 sec
     gradient                   ...        0 min,  0.056 sec
 * total energy  :  -136.2449005 Eh     change       -0.2367177E-03 Eh
   gradient norm :     0.0031281 Eh/α   predicted    -0.1845475E-03 ( -22.04%)
   displ. norm   :     0.7548839 α      lambda       -0.2807768E-03
   maximum displ.:     0.5310095 α      in ANC's #1, #2, #3, ...
 * RMSD in coord.:     1.2232758 α      energy gain  -0.4438688E-02 Eh

generating ANC from exact Hessian ...
Using Lindh-Hessian (1995)
 Shifting diagonal of input Hessian by    9.9503235172427699E-003
 Lowest  eigenvalues of input Hessian
    0.000000    0.000000    0.000000    0.000000    0.000000    0.000000
    0.010000    0.010091    0.010168    0.010346    0.010455    0.010474
    0.010829    0.011176    0.011422    0.011610    0.011909    0.012749
 Highest eigenvalues
    2.184198    2.208940    2.226956    2.286605    2.294130    2.341721


........................................................................
.............................. CYCLE   67 ..............................
........................................................................

 iter      E             dE          RMSdq      gap      omega  full diag
   1   -138.5373874 -0.138537E+03  0.106E-01    0.88       0.0  T
   2   -138.5373909 -0.349359E-05  0.622E-02    0.88       1.0  T
   3   -138.5373644  0.264523E-04  0.169E-02    0.88       1.0  T
   4   -138.5373934 -0.289497E-04  0.294E-03    0.88       3.8  T
   5   -138.5373938 -0.395579E-06  0.169E-03    0.88       6.6  T
   6   -138.5373939 -0.143182E-06  0.684E-04    0.88      16.3  T
   7   -138.5373940 -0.199932E-07  0.189E-04    0.88      59.2  T
     SCC iter.                  ...        0 min,  0.044 sec
     gradient                   ...        0 min,  0.056 sec
 * total energy  :  -136.2451675 Eh     change       -0.2669919E-03 Eh
   gradient norm :     0.0033897 Eh/α   predicted     0.0000000E+00 (-100.00%)
   displ. norm   :     0.0563958 α      lambda       -0.5346358E-04
   maximum displ.:     0.0309630 α      in ANC's #1, #11, #10, ...

........................................................................
.............................. CYCLE   68 ..............................
........................................................................

 iter      E             dE          RMSdq      gap      omega  full diag
   1   -138.5385673 -0.138539E+03  0.160E-02    0.88       0.0  T
   2   -138.5385675 -0.218235E-06  0.927E-03    0.88       1.2  T
   3   -138.5385670  0.450029E-06  0.252E-03    0.88       4.4  T
   4   -138.5385675 -0.525427E-06  0.693E-04    0.88      16.1  T
   5   -138.5385676 -0.253165E-07  0.349E-04    0.88      32.1  T
     SCC iter.                  ...        0 min,  0.031 sec
     gradient                   ...        0 min,  0.057 sec
 * total energy  :  -136.2452176 Eh     change       -0.5005054E-04 Eh
   gradient norm :     0.0015655 Eh/α   predicted    -0.2934347E-04 ( -41.37%)
   displ. norm   :     0.2952803 α      lambda       -0.1399963E-03
   maximum displ.:     0.1576434 α      in ANC's #1, #11, #10, ...

........................................................................
.............................. CYCLE   69 ..............................
........................................................................

 iter      E             dE          RMSdq      gap      omega  full diag
   1   -138.5404765 -0.138540E+03  0.788E-02    0.88       0.0  T
   2   -138.5404809 -0.434170E-05  0.456E-02    0.88       1.0  T
   3   -138.5404741  0.676023E-05  0.102E-02    0.88       1.1  T
   4   -138.5404825 -0.837388E-05  0.292E-03    0.88       3.8  T
   5   -138.5404828 -0.271648E-06  0.167E-03    0.88       6.7  T
   6   -138.5404829 -0.138591E-06  0.569E-04    0.88      19.7  T
   7   -138.5404829 -0.294169E-07  0.165E-04    0.88      68.0  T
     SCC iter.                  ...        0 min,  0.044 sec
     gradient                   ...        0 min,  0.057 sec
 * total energy  :  -136.2453350 Eh     change       -0.1174228E-03 Eh
   gradient norm :     0.0048373 Eh/α   predicted    -0.7271556E-04 ( -38.07%)
   displ. norm   :     0.1070286 α      lambda       -0.5282179E-04
   maximum displ.:     0.0641496 α      in ANC's #1, #11, #10, ...

........................................................................
.............................. CYCLE   70 ..............................
........................................................................

 iter      E             dE          RMSdq      gap      omega  full diag
   1   -138.5399559 -0.138540E+03  0.255E-02    0.88       0.0  T
   2   -138.5399563 -0.370181E-06  0.148E-02    0.88       1.0  T
   3   -138.5399561  0.193567E-06  0.207E-03    0.88       5.4  T
   4   -138.5399564 -0.319646E-06  0.746E-04    0.88      15.0  T
   5   -138.5399564 -0.776720E-08  0.390E-04    0.88      28.6  T
     SCC iter.                  ...        0 min,  0.031 sec
     gradient                   ...        0 min,  0.056 sec
 * total energy  :  -136.2453822 Eh     change       -0.4720105E-04 Eh
   gradient norm :     0.0037134 Eh/α   predicted    -0.2671509E-04 ( -43.40%)
   displ. norm   :     0.2344172 α      lambda       -0.1137197E-03
   maximum displ.:     0.1394017 α      in ANC's #1, #11, #3, ...

   *** GEOMETRY OPTIMIZATION CONVERGED AFTER 70 ITERATIONS ***

------------------------------------------------------------------------
 total energy gain   :        -0.4172546 Eh     -261.8312 kcal/mol
 total RMSD          :         3.1781472 a0        1.6818 Å
 total power (kW/mol):       -15.6500240 (step) -127.6017 (real)
------------------------------------------------------------------------

 ANCopt (total)                0 d,  0 h,  0 min,  8.585 sec
 optimizer setup                ...        0 min,  0.000 sec (  0.001%)
 model hessian                  ...        0 min,  0.067 sec (  0.781%)
 ANC generation                 ...        0 min,  0.014 sec (  0.169%)
 coordinate transformation      ...        0 min,  0.003 sec (  0.040%)
 single point calculation       ...        0 min,  8.467 sec ( 98.617%)
 optimization log               ...        0 min,  0.017 sec (  0.193%)
 hessian update                 ...        0 min,  0.003 sec (  0.034%)
 rational function              ...        0 min,  0.007 sec (  0.083%)

================
 final structure:
================
 xtb: 6.7.1 (edcfbbe)
          08212605333D

 80 90  0     0  0            999 V2000
    2.4518   10.3783   -1.8035 O   0  0  0  0  0  0  0  0  0  0  0  0
    0.8329   -8.0121   -2.3142 C   0  0  0  0  0  0  0  0  0  0  0  0
    2.7730   11.0164   -3.7576 H   0  0  0  0  0  0  0  0  0  0  0  0
    1.2852   -0.4060    0.3798 N   0  0  0  0  0  0  0  0  0  0  0  0
   -0.0361   -6.1922   -2.9227 H   0  0  0  0  0  0  0  0  0  0  0  0
    1.8714    8.7119   -0.0521 N   0  0  0  0  0  0  0  0  0  0  0  0
   -1.2815   -1.2987    2.4592 C   0  0  0  0  0  0  0  0  0  0  0  0
    1.2373   -8.8323   -1.2527 C   0  0  0  0  0  0  0  0  0  0  0  0
    1.0100   -2.6419   -0.3834 H   0  0  0  0  0  0  0  0  0  0  0  0
    2.1530    8.8992   -3.5045 C   0  0  0  0  0  0  0  0  0  0  0  0
   -0.6784   -4.6548    0.8369 C   0  0  0  0  0  0  0  0  0  0  0  0
    0.9559   -8.3591   -3.3295 H   0  0  0  0  0  0  0  0  0  0  0  0
    2.0818    9.1975   -1.3011 C   0  0  0  0  0  0  0  0  0  0  0  0
   -3.1765   -1.8133    1.2880 C   0  0  0  0  0  0  0  0  0  0  0  0
    0.3623   -0.7201   -0.4838 C   0  0  0  0  0  0  0  0  0  0  0  0
    0.6974    3.7658   -2.8748 C   0  0  0  0  0  0  0  0  0  0  0  0
   -5.1009   -2.2881    0.2042 C   0  0  0  0  0  0  0  0  0  0  0  0
    0.8934    5.1581    0.4375 C   0  0  0  0  0  0  0  0  0  0  0  0
   -0.7216    1.5510    4.8092 C   0  0  0  0  0  0  0  0  0  0  0  0
   -0.8191   -2.6320   -1.3736 C   0  0  0  0  0  0  0  0  0  0  0  0
    0.3334   -2.7411    2.4281 H   0  0  0  0  0  0  0  0  0  0  0  0
    0.2931   -6.7167    1.6362 C   0  0  0  0  0  0  0  0  0  0  0  0
    0.6516    1.4367    4.9756 C   0  0  0  0  0  0  0  0  0  0  0  0
   -2.4881   -0.9642    2.0564 N   0  0  0  0  0  0  0  0  0  0  0  0
    0.7695   -0.3411    3.5687 C   0  0  0  0  0  0  0  0  0  0  0  0
   -6.0924   -1.9818   -0.1034 H   0  0  0  0  0  0  0  0  0  0  0  0
    1.4226   -1.0486    3.0804 H   0  0  0  0  0  0  0  0  0  0  0  0
    0.5291    2.9349   -3.5325 H   0  0  0  0  0  0  0  0  0  0  0  0
    0.0182   -4.2436   -2.3953 H   0  0  0  0  0  0  0  0  0  0  0  0
   -0.4246    1.4921   -1.4121 C   0  0  0  0  0  0  0  0  0  0  0  0
   -0.4577   -5.0151   -0.4775 C   0  0  0  0  0  0  0  0  0  0  0  0
    0.6153    4.4418    1.1948 H   0  0  0  0  0  0  0  0  0  0  0  0
    0.9305    4.7966   -0.9118 C   0  0  0  0  0  0  0  0  0  0  0  0
   -4.7293   -3.5199   -0.1759 N   0  0  0  0  0  0  0  0  0  0  0  0
   -1.1112    1.8890   -2.1475 H   0  0  0  0  0  0  0  0  0  0  0  0
    1.5110    7.0437   -1.5830 C   0  0  0  0  0  0  0  0  0  0  0  0
   -1.7144   -4.3983   -2.1031 H   0  0  0  0  0  0  0  0  0  0  0  0
    2.0688    2.8689    0.4668 H   0  0  0  0  0  0  0  0  0  0  0  0
    1.9523    9.2091    0.8172 H   0  0  0  0  0  0  0  0  0  0  0  0
   -2.7182   -2.1617   -2.2257 H   0  0  0  0  0  0  0  0  0  0  0  0
   -1.8047   -1.7965   -1.7815 C   0  0  0  0  0  0  0  0  0  0  0  0
    0.5342    2.3218   -0.9214 C   0  0  0  0  0  0  0  0  0  0  0  0
    1.1852    5.7322   -1.9396 C   0  0  0  0  0  0  0  0  0  0  0  0
    0.2825   -6.7825   -2.0778 C   0  0  0  0  0  0  0  0  0  0  0  0
   -0.4629   -5.1885    2.9048 H   0  0  0  0  0  0  0  0  0  0  0  0
    1.0323    5.0474   -3.1746 C   0  0  0  0  0  0  0  0  0  0  0  0
    1.5191    7.3765   -0.2054 C   0  0  0  0  0  0  0  0  0  0  0  0
    1.7072    0.8327    0.7078 C   0  0  0  0  0  0  0  0  0  0  0  0
    0.6512    3.5855   -1.5118 N   0  0  0  0  0  0  0  0  0  0  0  0
    1.3532   -9.0297    0.8651 H   0  0  0  0  0  0  0  0  0  0  0  0
   -1.3163   -3.3909    1.2520 C   0  0  0  0  0  0  0  0  0  0  0  0
    0.1036   -6.2955   -0.7626 C   0  0  0  0  0  0  0  0  0  0  0  0
   -0.7668   -4.1009   -1.6447 C   0  0  0  0  0  0  0  0  0  0  0  0
    0.5961   -7.3638    2.4459 H   0  0  0  0  0  0  0  0  0  0  0  0
   -0.6275    0.0894   -1.1740 C   0  0  0  0  0  0  0  0  0  0  0  0
   -3.2402   -4.9115   -0.1131 H   0  0  0  0  0  0  0  0  0  0  0  0
   -1.2745    2.3217    5.3226 H   0  0  0  0  0  0  0  0  0  0  0  0
   -2.6422   -3.0684    0.8685 C   0  0  0  0  0  0  0  0  0  0  0  0
    1.4726    2.0348    0.1297 C   0  0  0  0  0  0  0  0  0  0  0  0
    1.1924    6.4569    0.7893 C   0  0  0  0  0  0  0  0  0  0  0  0
   -0.6074   -0.3365    3.3368 C   0  0  0  0  0  0  0  0  0  0  0  0
   -2.4247    0.6817    3.8097 H   0  0  0  0  0  0  0  0  0  0  0  0
   -0.2841   -5.5110    1.8894 C   0  0  0  0  0  0  0  0  0  0  0  0
   -4.4198   -1.4484    0.9241 N   0  0  0  0  0  0  0  0  0  0  0  0
    0.4905   -7.1461    0.3079 C   0  0  0  0  0  0  0  0  0  0  0  0
    1.1717    6.7603    1.8248 H   0  0  0  0  0  0  0  0  0  0  0  0
   -1.6784   -0.4478   -1.7357 N   0  0  0  0  0  0  0  0  0  0  0  0
    1.8758    8.2322   -2.2783 C   0  0  0  0  0  0  0  0  0  0  0  0
    1.6766   -9.7971   -1.4591 H   0  0  0  0  0  0  0  0  0  0  0  0
   -1.3591    0.6504    3.9766 C   0  0  0  0  0  0  0  0  0  0  0  0
    1.0612   -8.4057    0.0326 C   0  0  0  0  0  0  0  0  0  0  0  0
   -3.5259   -3.9020    0.1598 C   0  0  0  0  0  0  0  0  0  0  0  0
    1.2000    2.1085    5.6246 H   0  0  0  0  0  0  0  0  0  0  0  0
    0.2853   -2.0534   -0.7751 N   0  0  0  0  0  0  0  0  0  0  0  0
    2.4893   10.1713   -3.1636 C   0  0  0  0  0  0  0  0  0  0  0  0
   -0.6635   -2.5143    2.0836 C   0  0  0  0  0  0  0  0  0  0  0  0
    2.4178    0.8008    1.5264 H   0  0  0  0  0  0  0  0  0  0  0  0
    1.3779    0.5162    4.3666 N   0  0  0  0  0  0  0  0  0  0  0  0
    1.1598    5.4648   -4.1526 H   0  0  0  0  0  0  0  0  0  0  0  0
    2.1120    8.4967   -4.4957 H   0  0  0  0  0  0  0  0  0  0  0  0
  1 13  4  0  0  0  0
  1 75  4  0  0  0  0
  2  8  4  0  0  0  0
  2 12  1  0  0  0  0
  2 44  4  0  0  0  0
  3 75  1  0  0  0  0
  4 15  2  0  0  0  0
  4 48  1  0  0  0  0
  5 44  1  0  0  0  0
  6 13  4  0  0  0  0
  6 39  1  0  0  0  0
  6 47  4  0  0  0  0
  7 24  4  0  0  0  0
  7 61  1  0  0  0  0
  7 76  4  0  0  0  0
  8 69  1  0  0  0  0
  8 71  4  0  0  0  0
  9 74  1  0  0  0  0
 10 68  4  0  0  0  0
 10 75  4  0  0  0  0
 10 80  1  0  0  0  0
 11 31  4  0  0  0  0
 11 51  1  0  0  0  0
 11 63  4  0  0  0  0
 13 68  4  0  0  0  0
 14 24  4  0  0  0  0
 14 58  4  0  0  0  0
 14 64  4  0  0  0  0
 15 55  1  0  0  0  0
 15 74  1  0  0  0  0
 16 28  1  0  0  0  0
 16 46  4  0  0  0  0
 16 49  4  0  0  0  0
 17 26  1  0  0  0  0
 17 34  4  0  0  0  0
 17 64  4  0  0  0  0
 18 32  1  0  0  0  0
 18 33  4  0  0  0  0
 18 60  4  0  0  0  0
 19 23  4  0  0  0  0
 19 57  1  0  0  0  0
 19 70  4  0  0  0  0
 20 41  2  0  0  0  0
 20 53  1  0  0  0  0
 20 74  1  0  0  0  0
 21 76  1  0  0  0  0
 22 54  1  0  0  0  0
 22 63  4  0  0  0  0
 22 65  4  0  0  0  0
 23 73  1  0  0  0  0
 23 78  4  0  0  0  0
 25 27  1  0  0  0  0
 25 61  4  0  0  0  0
 25 78  4  0  0  0  0
 29 53  1  0  0  0  0
 30 35  1  0  0  0  0
 30 42  2  0  0  0  0
 30 55  1  0  0  0  0
 31 52  4  0  0  0  0
 31 53  1  0  0  0  0
 33 43  4  0  0  0  0
 33 49  4  0  0  0  0
 34 72  4  0  0  0  0
 36 43  4  0  0  0  0
 36 47  4  0  0  0  0
 36 68  4  0  0  0  0
 37 53  1  0  0  0  0
 38 59  1  0  0  0  0
 40 41  1  0  0  0  0
 41 67  1  0  0  0  0
 42 49  1  0  0  0  0
 42 59  1  0  0  0  0
 43 46  4  0  0  0  0
 44 52  4  0  0  0  0
 45 63  1  0  0  0  0
 46 79  1  0  0  0  0
 47 60  4  0  0  0  0
 48 59  2  0  0  0  0
 48 77  1  0  0  0  0
 50 71  1  0  0  0  0
 51 58  4  0  0  0  0
 51 76  4  0  0  0  0
 52 65  4  0  0  0  0
 55 67  2  0  0  0  0
 56 72  1  0  0  0  0
 58 72  4  0  0  0  0
 60 66  1  0  0  0  0
 61 70  4  0  0  0  0
 62 70  1  0  0  0  0
 65 71  4  0  0  0  0
M  END
$$$$

 Bond Distances (Angstroems)
 ---------------------------
O1-C13=1.3356        O1-C75=1.3762        C2-C8=1.4011         C2-H12=1.0800        C2-C44=1.3678        H3-C75=1.0712        
N4-C15=1.3024        N4-C48=1.3491        H5-C44=1.0788        N6-C13=1.3564        N6-H39=1.0047        N6-C47=1.3896        
C7-N24=1.3152        C7-C61=1.4665        C7-C76=1.4144        C8-C2=1.4011         C8-H69=1.0800        C8-C71=1.3656        
H9-N74=1.0124        C10-C68=1.4231       C10-C75=1.3593       C10-H80=1.0705       C11-C31=1.3807       C11-C51=1.4753       
C11-C63=1.4130       H12-C2=1.0800        C13-O1=1.3356        C13-N6=1.3564        C13-C68=1.3890       C14-N24=1.3362       
C14-C58=1.4271       C14-N64=1.3459       C15-N4=1.3024        C15-C55=1.4530       C15-N74=1.3669       C16-H28=1.0730       
C16-C46=1.3580       C16-N49=1.3756       C17-H26=1.0823       C17-N34=1.3416       C17-N64=1.2989       C18-H32=1.0788       
C18-C33=1.3973       C18-C60=1.3785       C19-C23=1.3879       C19-H57=1.0785       C19-C70=1.3823       C20-C41=1.3550       
C20-C53=1.4946       C20-N74=1.3830       H21-C76=1.0789       C22-H54=1.0799       C22-C63=1.3605       C22-C65=1.4098       
C23-C19=1.3879       C23-H73=1.0831       C23-N78=1.3213       N24-C7=1.3152        N24-C14=1.3362       C25-H27=1.0796       
C25-C61=1.3962       C25-N78=1.3198       H26-C17=1.0823       H27-C25=1.0796       H28-C16=1.0730       H29-C53=1.0955       
C30-H35=1.0815       C30-C42=1.3596       C30-C55=1.4372       C31-C11=1.3807       C31-C52=1.4268       C31-C53=1.5144       
H32-C18=1.0788       C33-C18=1.3973       C33-C43=1.4130       C33-N49=1.3801       N34-C17=1.3416       N34-C72=1.3065       
H35-C30=1.0815       C36-C43=1.3976       C36-C47=1.4173       C36-C68=1.4244       H37-C53=1.0939       H38-C59=1.0792       
H39-N6=1.0047        H40-C41=1.0794       C41-C20=1.3550       C41-H40=1.0794       C41-N67=1.3554       C42-C30=1.3596       
C42-N49=1.3997       C42-C59=1.4380       C43-C33=1.4130       C43-C36=1.3976       C43-C46=1.4204       C44-C2=1.3678        
C44-H5=1.0788        C44-C52=1.4138       H45-C63=1.0803       C46-C16=1.3580       C46-C43=1.4204       C46-H79=1.0710       
C47-N6=1.3896        C47-C36=1.4173       C47-C60=1.3934       C48-N4=1.3491        C48-C59=1.3544       C48-H77=1.0844       
N49-C16=1.3756       N49-C33=1.3801       N49-C42=1.3997       H50-C71=1.0805       C51-C11=1.4753       C51-C58=1.4175       
C51-C76=1.3734       C52-C31=1.4268       C52-C44=1.4138       C52-C65=1.4210       C53-C20=1.4946       C53-H29=1.0955       
C53-C31=1.5144       C53-H37=1.0939       H54-C22=1.0799       C55-C15=1.4530       C55-C30=1.4372       C55-N67=1.3071       
H56-C72=1.0840       H57-C19=1.0785       C58-C14=1.4271       C58-C51=1.4175       C58-C72=1.4064       C59-H38=1.0792       
C59-C42=1.4380       C59-C48=1.3544       C60-C18=1.3785       C60-C47=1.3934       C60-H66=1.0793       C61-C7=1.4665        
C61-C25=1.3962       C61-C70=1.3958       H62-C70=1.0791       C63-C11=1.4130       C63-C22=1.3605       C63-H45=1.0803       
N64-C14=1.3459       N64-C17=1.2989       C65-C22=1.4098       C65-C52=1.4210       C65-C71=1.4101       H66-C60=1.0793       
N67-C41=1.3554       N67-C55=1.3071       C68-C10=1.4231       C68-C13=1.3890       C68-C36=1.4244       H69-C8=1.0800        
C70-C19=1.3823       C70-C61=1.3958       C70-H62=1.0791       C71-C8=1.3656        C71-H50=1.0805       C71-C65=1.4101       
C72-N34=1.3065       C72-H56=1.0840       C72-C58=1.4064       H73-C23=1.0831       N74-H9=1.0124        N74-C15=1.3669       
N74-C20=1.3830       C75-O1=1.3762        C75-H3=1.0712        C75-C10=1.3593       C76-C7=1.4144        C76-H21=1.0789       
C76-C51=1.3734       H77-C48=1.0844       N78-C23=1.3213       N78-C25=1.3198       H79-C46=1.0710       H80-C10=1.0705       
 C  H  Rav=1.0801 sigma=0.0056  Rmin=1.0705  Rmax=1.0955    25
 C  C  Rav=1.4069 sigma=0.0365  Rmin=1.3544  Rmax=1.5144    42
 N  H  Rav=1.0086 sigma=0.0038  Rmin=1.0047  Rmax=1.0124     2
 N  C  Rav=1.3448 sigma=0.0311  Rmin=1.2989  Rmax=1.3997    19
 O  C  Rav=1.3559 sigma=0.0203  Rmin=1.3356  Rmax=1.3762     2

 selected bond angles (degree)
 --------------------
C75-O1-C13=104.26              H12-C2-C8=119.43               C44-C2-C8=120.76               C44-C2-H12=119.81              
C48-N4-C15=127.18              H39-N6-C13=127.37              C47-N6-C13=106.37              C47-N6-H39=126.26              
C61-C7-N24=115.98              C76-C7-N24=122.56              C76-C7-C61=121.46              H69-C8-C2=119.70               
C71-C8-C2=119.54               C71-C8-H69=120.75              C75-C10-C68=105.70             H80-C10-C68=127.89             
H80-C10-C75=126.41             

 selected dihedral angles (degree)
 ---------------------------------
H69-C8-C2-H12=  0.63          H69-C8-C2-C44=180.45          C71-C8-C2-H12=181.15          C71-C8-C2-C44=  0.97          
           -------------------------------------------------
          |                Final Singlepoint                |
           -------------------------------------------------

          ...................................................
          :                      SETUP                      :
          :.................................................:
          :  # basis functions                 239          :
          :  # atomic orbitals                 239          :
          :  # shells                          133          :
          :  # electrons                       250          :
          :  max. iterations                   250          :
          :  Hamiltonian                  GFN2-xTB          :
          :  restarted?                      false          :
          :  GBSA solvation                  false          :
          :  PC potential                    false          :
          :  electronic temp.          300.0000000     K    :
          :  accuracy                    1.0000000          :
          :  -> integral cutoff          0.2500000E+02      :
          :  -> integral neglect         0.1000000E-07      :
          :  -> SCF convergence          0.1000000E-05 Eh   :
          :  -> wf. convergence          0.1000000E-03 e    :
          :  Broyden damping             0.4000000          :
          :  net charge                          0          :
          :  unpaired electrons                  0          :
          ...................................................

 iter      E             dE          RMSdq      gap      omega  full diag
   1   -138.5399564 -0.138540E+03  0.110E-04    0.88       0.0  T
   2   -138.5399564  0.455145E-09  0.120E-04    0.88      93.5  T
   3   -138.5399564 -0.158229E-08  0.240E-05    0.88     466.6  T

   *** convergence criteria satisfied after 3 iterations ***

         #    Occupation            Energy/Eh            Energy/eV
      -------------------------------------------------------------
         1        2.0000           -0.7341326             -19.9768
       ...           ...                  ...                  ...
       119        2.0000           -0.3821446             -10.3987
       120        2.0000           -0.3728118             -10.1447
       121        2.0000           -0.3626228              -9.8675
       122        2.0000           -0.3609849              -9.8229
       123        2.0000           -0.3555829              -9.6759
       124        2.0000           -0.3502852              -9.5317
       125        2.0000           -0.3415133              -9.2931 (HOMO)
       126                         -0.3091187              -8.4115 (LUMO)
       127                         -0.2856185              -7.7721
       128                         -0.2790225              -7.5926
       129                         -0.2724793              -7.4145
       130                         -0.2624234              -7.1409
       ...                                ...                  ...
       239                          0.7939947              21.6057
      -------------------------------------------------------------
                  HL-Gap            0.0323947 Eh            0.8815 eV
             Fermi-level           -0.3253160 Eh           -8.8523 eV

 SCC (total)                   0 d,  0 h,  0 min,  0.095 sec
 SCC setup                      ...        0 min,  0.000 sec (  0.470%)
 Dispersion                     ...        0 min,  0.001 sec (  1.099%)
 classical contributions        ...        0 min,  0.000 sec (  0.263%)
 integral evaluation            ...        0 min,  0.017 sec ( 17.959%)
 iterations                     ...        0 min,  0.019 sec ( 20.355%)
 molecular gradient             ...        0 min,  0.057 sec ( 59.291%)
 printout                       ...        0 min,  0.001 sec (  0.550%)

         :::::::::::::::::::::::::::::::::::::::::::::::::::::
         ::                     SUMMARY                     ::
         :::::::::::::::::::::::::::::::::::::::::::::::::::::
         :: total energy            -136.245382202883 Eh    ::
         :: gradient norm              0.003715036568 Eh/a0 ::
         :: HOMO-LUMO gap              0.881503339976 eV    ::
         ::.................................................::
         :: SCC energy              -138.537810399700 Eh    ::
         :: -> isotropic ES            0.074964828425 Eh    ::
         :: -> anisotropic ES          0.012002177603 Eh    ::
         :: -> anisotropic XC          0.089934692987 Eh    ::
         :: -> dispersion             -0.124012210887 Eh    ::
         :: repulsion energy           2.292428196817 Eh    ::
         :: add. restraining           0.000000000000 Eh    ::
         :: total charge               0.000000000008 e     ::
         :::::::::::::::::::::::::::::::::::::::::::::::::::::

           -------------------------------------------------
          |                Property Printout                |
           -------------------------------------------------

    * Orbital Energies and Occupations

         #    Occupation            Energy/Eh            Energy/eV
      -------------------------------------------------------------
         1        2.0000           -0.7341326             -19.9768
       ...           ...                  ...                  ...
       113        2.0000           -0.4123473             -11.2205
       114        2.0000           -0.4065597             -11.0631
       115        2.0000           -0.4029454             -10.9647
       116        2.0000           -0.3953531             -10.7581
       117        2.0000           -0.3933746             -10.7043
       118        2.0000           -0.3874667             -10.5435
       119        2.0000           -0.3821446             -10.3987
       120        2.0000           -0.3728118             -10.1447
       121        2.0000           -0.3626228              -9.8675
       122        2.0000           -0.3609849              -9.8229
       123        2.0000           -0.3555829              -9.6759
       124        2.0000           -0.3502852              -9.5317
       125        2.0000           -0.3415133              -9.2931 (HOMO)
       126                         -0.3091187              -8.4115 (LUMO)
       127                         -0.2856185              -7.7721
       128                         -0.2790225              -7.5926
       129                         -0.2724793              -7.4145
       130                         -0.2624234              -7.1409
       131                         -0.2508561              -6.8261
       132                         -0.2497299              -6.7955
       133                         -0.2405930              -6.5469
       134                         -0.2294607              -6.2439
       135                         -0.2221078              -6.0439
       136                         -0.2083181              -5.6686
       ...                                ...                  ...
       239                          0.7939947              21.6057
      -------------------------------------------------------------
                  HL-Gap            0.0323947 Eh            0.8815 eV
             Fermi-level           -0.3253160 Eh           -8.8523 eV

     #   Z          covCN         q      C6AA      α(0)
     1   8 O        1.717    -0.214    17.554     5.657
     2   6 C        2.917    -0.028    28.692     8.784
     3   1 H        0.926     0.046     2.371     2.408
     4   7 N        1.847    -0.303    28.696     7.939
     5   1 H        0.926     0.035     2.516     2.480
     6   7 N        2.741    -0.135    23.923     7.264
     7   6 C        2.954     0.106    25.657     8.308
     8   6 C        2.915    -0.027    28.681     8.782
     9   1 H        0.860     0.185     1.189     1.708
    10   6 C        3.007    -0.063    29.540     8.916
    11   6 C        2.975    -0.005    28.134     8.700
    12   1 H        0.926     0.035     2.513     2.479
    13   6 C        3.320     0.168    22.519     7.555
    14   6 C        2.973     0.183    24.077     8.049
    15   6 C        2.843     0.153    24.672     8.140
    16   6 C        3.044    -0.007    28.157     8.703
    17   6 C        2.915     0.154    24.671     8.145
    18   6 C        2.912    -0.053    29.306     8.877
    19   6 C        2.912    -0.037    28.912     8.817
    20   6 C        2.891     0.040    27.103     8.535
    21   1 H        0.926     0.045     2.384     2.415
    22   6 C        2.917    -0.037    28.911     8.817
    23   6 C        2.912     0.062    26.621     8.461
    24   7 N        1.855    -0.242    27.175     7.726
    25   6 C        2.914     0.060    26.664     8.467
    26   1 H        0.925     0.054     2.270     2.356
    27   1 H        0.926     0.052     2.298     2.370
    28   1 H        0.926     0.035     2.520     2.483
    29   1 H        0.924     0.063     2.164     2.300
    30   6 C        2.920    -0.069    29.717     8.939
    31   6 C        2.963     0.000    28.021     8.683
    32   1 H        0.926     0.032     2.557     2.501
    33   6 C        3.083     0.029    27.265     8.560
    34   7 N        1.833    -0.240    27.125     7.718
    35   1 H        0.925     0.064     2.150     2.293
    36   6 C        3.082    -0.020    28.406     8.737
    37   1 H        0.924     0.061     2.185     2.312
    38   1 H        0.926     0.046     2.375     2.410
    39   1 H        0.860     0.169     1.276     1.770
    40   1 H        0.926     0.036     2.509     2.477
    41   6 C        2.886     0.019    27.576     8.609
    42   6 C        2.890     0.077    26.279     8.405
    43   6 C        3.112    -0.013    28.177     8.696
    44   6 C        2.918    -0.038    28.942     8.822
    45   1 H        0.926     0.035     2.522     2.484
    46   6 C        3.002    -0.067    29.642     8.931
    47   6 C        3.119     0.035    27.057     8.519
    48   6 C        2.843     0.061    26.624     8.456
    49   7 N        2.837    -0.015    21.543     6.894
    50   1 H        0.926     0.037     2.493     2.469
    51   6 C        2.977     0.023    27.493     8.601
    52   6 C        2.984     0.004    27.936     8.670
    53   6 C        3.811    -0.070    21.837     6.652
    54   1 H        0.926     0.039     2.460     2.453
    55   6 C        2.935     0.088    26.034     8.368
    56   1 H        0.925     0.040     2.454     2.450
    57   1 H        0.926     0.043     2.412     2.429
    58   6 C        2.981    -0.028    28.704     8.788
    59   6 C        2.898    -0.080    30.007     8.982
    60   6 C        2.913    -0.056    29.401     8.891
    61   6 C        2.977    -0.002    28.071     8.691
    62   1 H        0.926     0.068     2.108     2.270
    63   6 C        2.923    -0.035    28.863     8.810
    64   7 N        1.843    -0.233    26.944     7.693
    65   6 C        2.989     0.014    27.703     8.634
    66   1 H        0.926     0.027     2.622     2.532
    67   7 N        1.851    -0.254    27.472     7.768
    68   6 C        3.174    -0.057    29.005     8.796
    69   1 H        0.926     0.036     2.502     2.474
    70   6 C        2.935    -0.007    28.201     8.709
    71   6 C        2.921    -0.033    28.814     8.803
    72   6 C        2.921     0.080    26.223     8.398
    73   1 H        0.925     0.043     2.406     2.426
    74   7 N        2.732    -0.119    23.590     7.214
    75   6 C        3.104     0.054    26.663     8.461
    76   6 C        2.921    -0.052    29.296     8.876
    77   1 H        0.925     0.045     2.387     2.416
    78   7 N        1.835    -0.216    26.551     7.636
    79   1 H        0.926     0.036     2.503     2.474
    80   1 H        0.926     0.040     2.443     2.444

 Mol. C6AA /au·bohr⁶  :      99962.631848
 Mol. C8AA /au·bohr⁸  :    2521083.941073
 Mol. α(0) /au        :        506.133900


Wiberg/Mayer (AO) data.
largest (>0.10) Wiberg bond orders for each atom

 ---------------------------------------------------------------------------
     #   Z sym  total        # sym  WBO       # sym  WBO       # sym  WBO
 ---------------------------------------------------------------------------
     1   8 O    2.382 --    13 C    1.119    75 C    1.057
     2   6 C    3.992 --    44 C    1.552     8 C    1.325    12 H    0.971
     3   1 H    0.998 --    75 C    0.968
     4   7 N    3.075 --    15 C    1.463    48 C    1.248    74 N    0.113
     5   1 H    0.998 --    44 C    0.963
     6   7 N    3.490 --    13 C    1.186    47 C    1.117    39 H    0.942
     7   6 C    3.973 --    24 N    1.468    76 C    1.264    61 C    1.059
     8   6 C    3.988 --    71 C    1.553     2 C    1.325    69 H    0.970
     9   1 H    0.965 --    74 N    0.929
    10   6 C    3.977 --    75 C    1.660    68 C    1.217    80 H    0.973
    11   6 C    3.987 --    31 C    1.485    63 C    1.271    51 C    1.028
    12   1 H    0.998 --     2 C    0.971
    13   6 C    3.903 --    68 C    1.358     6 N    1.186     1 O    1.119
    14   6 C    3.972 --    24 N    1.300    64 N    1.275    58 C    1.211
    15   6 C    3.952 --     4 N    1.463    74 N    1.188    55 C    1.097
    16   6 C    3.938 --    46 C    1.614    49 N    1.162    28 H    0.968
    17   6 C    3.963 --    64 N    1.546    34 N    1.312    26 H    0.955
    18   6 C    3.973 --    60 C    1.495    33 C    1.321    32 H    0.966
    19   6 C    3.991 --    70 C    1.461    23 C    1.415    57 H    0.969
                            25 C    0.108
    20   6 C    3.932 --    41 C    1.582    74 N    1.122    53 C    1.011
    21   1 H    0.997 --    76 C    0.962
    22   6 C    3.990 --    63 C    1.571    65 C    1.269    54 H    0.966
                            31 C    0.109
    23   6 C    3.971 --    78 N    1.433    19 C    1.415    73 H    0.964
                            61 C    0.104
    24   7 N    3.068 --     7 C    1.468    14 C    1.300
    25   6 C    3.973 --    78 N    1.452    61 C    1.369    27 H    0.957
                            19 C    0.108
    26   1 H    0.996 --    17 C    0.955
    27   1 H    0.997 --    25 C    0.957
    28   1 H    0.998 --    16 C    0.968
    29   1 H    0.993 --    53 C    0.941
    30   6 C    3.974 --    42 C    1.576    55 C    1.143    35 H    0.957
    31   6 C    3.982 --    11 C    1.485    52 C    1.248    53 C    0.998
                            22 C    0.109
    32   1 H    0.998 --    18 C    0.966
    33   6 C    3.947 --    18 C    1.321    43 C    1.274    49 N    1.128
    34   7 N    3.053 --    72 C    1.533    17 C    1.312
    35   1 H    0.995 --    30 C    0.957
    36   6 C    3.977 --    47 C    1.284    43 C    1.267    68 C    1.180
    37   1 H    0.995 --    53 C    0.953
    38   1 H    0.997 --    59 C    0.961
    39   1 H    0.970 --     6 N    0.942
    40   1 H    0.998 --    41 C    0.962
    41   6 C    3.966 --    20 C    1.582    67 N    1.240    40 H    0.962
    42   6 C    3.963 --    30 C    1.576    59 C    1.148    49 N    1.064
    43   6 C    3.980 --    33 C    1.274    36 C    1.267    46 C    1.222
    44   6 C    3.987 --     2 C    1.552    52 C    1.285     5 H    0.963
                            71 C    0.118
    45   1 H    0.998 --    63 C    0.969
    46   6 C    3.965 --    16 C    1.614    43 C    1.222    79 H    0.972
    47   6 C    3.936 --    60 C    1.329    36 C    1.284     6 N    1.117
    48   6 C    3.973 --    59 C    1.609     4 N    1.248    77 H    0.958
    49   7 N    3.614 --    16 C    1.162    33 C    1.128    42 C    1.064
    50   1 H    0.998 --    71 C    0.968
    51   6 C    3.982 --    76 C    1.520    58 C    1.227    11 C    1.028
    52   6 C    3.988 --    44 C    1.285    65 C    1.256    31 C    1.248
    53   6 C    3.993 --    20 C    1.011    31 C    0.998    37 H    0.953
                            29 H    0.941
    54   1 H    0.997 --    22 C    0.966
    55   6 C    3.973 --    67 N    1.515    30 C    1.143    15 C    1.097
    56   1 H    0.998 --    72 C    0.958
    57   1 H    0.998 --    19 C    0.969
    58   6 C    3.982 --    72 C    1.290    51 C    1.227    14 C    1.211
    59   6 C    3.955 --    48 C    1.609    42 C    1.148    38 H    0.961
    60   6 C    3.984 --    18 C    1.495    47 C    1.329    66 H    0.969
    61   6 C    3.986 --    70 C    1.376    25 C    1.369     7 C    1.059
                            23 C    0.104
    62   1 H    0.995 --    70 C    0.963
    63   6 C    3.989 --    22 C    1.571    11 C    1.271    45 H    0.969
    64   7 N    3.071 --    17 C    1.546    14 C    1.275    72 C    0.103
    65   6 C    3.988 --    71 C    1.283    22 C    1.269    52 C    1.256
    66   1 H    0.998 --    60 C    0.969
    67   7 N    3.058 --    55 C    1.515    41 C    1.240
    68   6 C    3.962 --    13 C    1.358    10 C    1.217    36 C    1.180
    69   1 H    0.998 --     8 C    0.970
    70   6 C    3.980 --    19 C    1.461    61 C    1.376    62 H    0.963
    71   6 C    3.991 --     8 C    1.553    65 C    1.283    50 H    0.968
                            44 C    0.118
    72   6 C    3.972 --    34 N    1.533    58 C    1.290    56 H    0.958
                            64 N    0.103
    73   1 H    0.998 --    23 C    0.964
    74   7 N    3.542 --    15 C    1.188    20 C    1.122     9 H    0.929
                             4 N    0.113
    75   6 C    3.871 --    10 C    1.660     1 O    1.057     3 H    0.968
    76   6 C    3.986 --    51 C    1.520     7 C    1.264    21 H    0.962
    77   1 H    0.996 --    48 C    0.958
    78   7 N    3.066 --    25 C    1.452    23 C    1.433
    79   1 H    0.998 --    46 C    0.972
    80   1 H    0.998 --    10 C    0.973
 ---------------------------------------------------------------------------

Topologies differ in bond orders
Writing corrected topology to xtbtopo.sdf

molecular dipole:
                 x           y           z       tot (Debye)
 q only:        1.002      -1.407       0.249
   full:        1.326      -1.777       0.416       5.735
molecular quadrupole (traceless):
                xx          xy          yy          xz          yz          zz
 q only:      -23.345      -9.340      20.333      -0.756      14.974       3.012
  q+dip:      -41.195      -9.336      39.448      -2.062      22.152       1.747
   full:      -38.085      -6.938      35.237      -6.586      18.516       2.848

           -------------------------------------------------
          |                Geometry Summary                 |
           -------------------------------------------------

      molecular mass/u    :      685.7357778
   center of mass at/Å    :       -0.0774171       0.2494573       0.0126220
  moments of inertia/u·Å² :        0.4486052E+04   0.2057756E+05   0.2180397E+05
rotational constants/cm⁻¹ :        0.3757788E-02   0.8192242E-03   0.7731451E-03

 * 83 selected distances

     #   Z          #   Z                                           value/Å
     2   6 C        8   6 C                                       1.4010645
     2   6 C       12   1 H                                       1.0799896
     1   8 O       13   6 C                                       1.3355787
     6   7 N       13   6 C                                       1.3564369
     4   7 N       15   6 C                                       1.3024102
    19   6 C       23   6 C                                       1.3879178
     7   6 C       24   7 N                                       1.3152297
    14   6 C       24   7 N                                       1.3361916
    17   6 C       26   1 H                                       1.0822899
    25   6 C       27   1 H                                       1.0796421
    16   6 C       28   1 H                                       1.0730371
    11   6 C       31   6 C                                       1.3806688
    18   6 C       32   1 H                                       1.0788334
    18   6 C       33   6 C                                       1.3973152
    17   6 C       34   7 N                                       1.3416116
    30   6 C       35   1 H                                       1.0814780
     6   7 N       39   1 H                                       1.0047290 (min)
    20   6 C       41   6 C                                       1.3549678
    40   1 H       41   6 C                                       1.0793828
    30   6 C       42   6 C                                       1.3596276
    33   6 C       43   6 C                                       1.4129820
    36   6 C       43   6 C                                       1.3976403
     2   6 C       44   6 C                                       1.3678034
     5   1 H       44   6 C                                       1.0787909
    16   6 C       46   6 C                                       1.3580313
    43   6 C       46   6 C                                       1.4204241
     6   7 N       47   6 C                                       1.3895720
    36   6 C       47   6 C                                       1.4173186
     4   7 N       48   6 C                                       1.3490816
    16   6 C       49   7 N                                       1.3756483
    33   6 C       49   7 N                                       1.3801289
    42   6 C       49   7 N                                       1.3997089
    31   6 C       52   6 C                                       1.4267670
    44   6 C       52   6 C                                       1.4137690
    29   1 H       53   6 C                                       1.0954519
    37   1 H       53   6 C                                       1.0938502
    22   6 C       54   1 H                                       1.0798636
    19   6 C       57   1 H                                       1.0785365
    14   6 C       58   6 C                                       1.4271410 (max)
    51   6 C       58   6 C                                       1.4175060
    38   1 H       59   6 C                                       1.0792201
    48   6 C       59   6 C                                       1.3543933
    18   6 C       60   6 C                                       1.3785008
    47   6 C       60   6 C                                       1.3934371
    25   6 C       61   6 C                                       1.3962477
    11   6 C       63   6 C                                       1.4129556
    22   6 C       63   6 C                                       1.3605376
    45   1 H       63   6 C                                       1.0802806
    14   6 C       64   7 N                                       1.3458588
    17   6 C       64   7 N                                       1.2989130
    22   6 C       65   6 C                                       1.4098006
    52   6 C       65   6 C                                       1.4210477
    60   6 C       66   1 H                                       1.0792700
    41   6 C       67   7 N                                       1.3554018
    55   6 C       67   7 N                                       1.3071196
    10   6 C       68   6 C                                       1.4231469
    13   6 C       68   6 C                                       1.3889621
    36   6 C       68   6 C                                       1.4244145
     8   6 C       69   1 H                                       1.0800423
    19   6 C       70   6 C                                       1.3823250
    61   6 C       70   6 C                                       1.3958374
    62   1 H       70   6 C                                       1.0790514
     8   6 C       71   6 C                                       1.3656439
Note: The following floating-point exceptions are signalling: IEEE_UNDERFLOW_FLAG IEEE_DENORMAL
normal termination of xtb
    50   1 H       71   6 C                                       1.0805362
    65   6 C       71   6 C                                       1.4100559
    34   7 N       72   6 C                                       1.3065000
    56   1 H       72   6 C                                       1.0840277
    58   6 C       72   6 C                                       1.4064422
    23   6 C       73   1 H                                       1.0831156
     9   1 H       74   7 N                                       1.0123988
    15   6 C       74   7 N                                       1.3668945
    20   6 C       74   7 N                                       1.3829980
     1   8 O       75   6 C                                       1.3762161
     3   1 H       75   6 C                                       1.0711579
    10   6 C       75   6 C                                       1.3593150
     7   6 C       76   6 C                                       1.4143915
    21   1 H       76   6 C                                       1.0789057
    51   6 C       76   6 C                                       1.3733595
    48   6 C       77   1 H                                       1.0844252
    23   6 C       78   7 N                                       1.3212525
    25   6 C       78   7 N                                       1.3198077
    46   6 C       79   1 H                                       1.0709802
    10   6 C       80   1 H                                       1.0705258

 * 5 distinct bonds (by element types)

   Z      Z             #   av. dist./Å        max./Å        min./Å
   1 H    6 C          25     1.0801074     1.0954519     1.0705258
   6 C    6 C          35     1.3946217     1.4271410     1.3543933
   1 H    7 N           2     1.0085639     1.0123988     1.0047290
   6 C    7 N          19     1.3447771     1.3997089     1.2989130
   6 C    8 O           2     1.3558974     1.3762161     1.3355787


optimized geometry written to: xtbopt.sdf


           -------------------------------------------------
          | TOTAL ENERGY             -136.245382202883 Eh   |
          | GRADIENT NORM               0.003715036568 Eh/α |
          | HOMO-LUMO GAP               0.881503339976 eV   |
           -------------------------------------------------

------------------------------------------------------------------------
 * finished run on 2026/08/21 at 05:33:57.845     
------------------------------------------------------------------------
 total:
 * wall-time:     0 d,  0 h,  0 min,  8.879 sec
 *  cpu-time:     0 d,  0 h,  0 min,  8.853 sec
 * ratio c/w:     0.997 speedup
 SCF:
 * wall-time:     0 d,  0 h,  0 min,  0.162 sec
 *  cpu-time:     0 d,  0 h,  0 min,  0.162 sec
 * ratio c/w:     1.000 speedup
 ANC optimizer:
 * wall-time:     0 d,  0 h,  0 min,  8.684 sec
 *  cpu-time:     0 d,  0 h,  0 min,  8.669 sec
 * ratio c/w:     0.998 speedup

