      -----------------------------------------------------------      
     |                   =====================                   |     
     |                           x T B                           |     
     |                   =====================                   |     
     |                         S. Grimme                         |     
     |          Mulliken Center for Theoretical Chemistry        |     
     |                    University of Bonn                     |     
      -----------------------------------------------------------      

   * xtb version 6.7.1 (edcfbbe) compiled by 'conda@5dfe00f5fb80' on 2026-06-10

   xtb is free software: you can redistribute it and/or modify it under
   the terms of the GNU Lesser General Public License as published by
   the Free Software Foundation, either version 3 of the License, or
   (at your option) any later version.
   
   xtb is distributed in the hope that it will be useful,
   but WITHOUT ANY WARRANTY; without even the implied warranty of
   MERCHANTABILITY or FITNESS FOR A PARTICULAR PURPOSE.  See the
   GNU Lesser General Public License for more details.
   
   Cite this work as:
   * C. Bannwarth, E. Caldeweyher, S. Ehlert, A. Hansen, P. Pracht,
     J. Seibert, S. Spicher, S. Grimme, WIREs Comput. Mol. Sci., 2020, 11,
     e01493. DOI: 10.1002/wcms.1493
   
   for GFN2-xTB:
   * C. Bannwarth, S. Ehlert and S. Grimme., J. Chem. Theory Comput., 2019,
     15, 1652-1671. DOI: 10.1021/acs.jctc.8b01176
   for GFN1-xTB:
   * S. Grimme, C. Bannwarth, P. Shushkov, J. Chem. Theory Comput., 2017,
     13, 1989-2009. DOI: 10.1021/acs.jctc.7b00118
   for GFN0-xTB:
   * P. Pracht, E. Caldeweyher, S. Ehlert, S. Grimme, ChemRxiv, 2019, preprint.
     DOI: 10.26434/chemrxiv.8326202.v1
   for GFN-FF:
   * S. Spicher and S. Grimme, Angew. Chem. Int. Ed., 2020, 59, 15665-15673.
     DOI: 10.1002/anie.202004239
   
   for ALPB and GBSA implicit solvation:
   * S. Ehlert, M. Stahn, S. Spicher, S. Grimme, J. Chem. Theory Comput.,
     2021, 17, 4250-4261. DOI: 10.1021/acs.jctc.1c00471
   
   for ddCOSMO and CPCM-X implicit solvation:
   * M. Stahn, S. Ehlert, S. Grimme, J. Phys. Chem. A,
     2023, XX, XXXX-XXXX. DOI: 10.1021/acs.jpca.3c04382
   
   for DFT-D4:
   * E. Caldeweyher, C. Bannwarth and S. Grimme, J. Chem. Phys., 2017,
     147, 034112. DOI: 10.1063/1.4993215
   * E. Caldeweyher, S. Ehlert, A. Hansen, H. Neugebauer, S. Spicher,
     C. Bannwarth and S. Grimme, J. Chem. Phys., 2019, 150, 154122.
     DOI: 10.1063/1.5090222
   * E. Caldeweyher, J.-M. Mewes, S. Ehlert and S. Grimme, Phys. Chem. Chem. Phys.
     2020, 22, 8499-8512. DOI: 10.1039/D0CP00502A
   
   for sTDA-xTB:
   * S. Grimme and C. Bannwarth, J. Chem. Phys., 2016, 145, 054103.
     DOI: 10.1063/1.4959605
   
   in the mass-spec context:
   * V. Asgeirsson, C. Bauer and S. Grimme, Chem. Sci., 2017, 8, 4879.
     DOI: 10.1039/c7sc00601b
   * J. Koopman and S. Grimme, ACS Omega 2019, 4, 12, 15120-15133.
     DOI: 10.1021/acsomega.9b02011
   
   for metadynamics refer to:
   * S. Grimme, J. Chem. Theory Comput., 2019, 155, 2847-2862
     DOI: 10.1021/acs.jctc.9b00143
   
   for SPH calculations refer to:
   * S. Spicher and S. Grimme, J. Chem. Theory Comput., 2021, 17, 1701-1714
     DOI: 10.1021/acs.jctc.0c01306
   
   for ONIOM refer to:
   * C. Plett, A. Katbashev, S. Ehlert, S. Grimme, M. Bursch,
     Phys. Chem. Chem. Phys., 2023, 25, 17860-17868. DOI: 10.1039/D3CP02178E
   
   for DIPRO refer to:
   * J. Kohn, N. Gildemeister, S. Grimme, D. Fazzi, A. Hansen,
     J. Chem. Phys., 2023, just accepted.
   
   for PTB refer to:
   * S. Grimme, M. Mueller, A. Hansen, J. Chem. Phys., 2023, 158, 124111.
     DOI: 10.1063/5.0137838
   
   with help from (in alphabetical order)
   P. Atkinson, C. Bannwarth, F. Bohle, G. Brandenburg, E. Caldeweyher
   M. Checinski, S. Dohm, S. Ehlert, S. Ehrlich, I. Gerasimov, C. Hölzer
   A. Katbashev, J. Kohn, J. Koopman, C. Lavigne, S. Lehtola, F. März, M. Müller,
   F. Musil, H. Neugebauer, J. Pisarek, C. Plett, P. Pracht, F. Pultar,
   J. Seibert, P. Shushkov, S. Spicher, M. Stahn, M. Steiner, T. Strunk,
   J. Stückrath, T. Rose, and J. Unsleber
   
 * started run on 2026/08/21 at 05:33:48.966     
   ID    Z sym.   atoms
    1    9 F      1, 18, 51
    2    6 C      2, 6, 7, 11-13, 15, 17, 19, 20, 24-30, 33, 35, 37, 40-46,
                  48-50, 52-57, 60, 61
    3    1 H      3, 5, 8-10, 16, 21-23, 31, 34, 36, 38, 39, 47, 58, 59, 62
    4    7 N      4, 14, 32

           -------------------------------------------------
          |                Calculation Setup                |
           -------------------------------------------------

          program call               : xtb 00030.sdf --opt loose --cycles 500
          coordinate file            : 00030.sdf
          omp threads                :                     1


           -------------------------------------------------
          |                 G F N 2 - x T B                 |
           -------------------------------------------------

        Reference                      10.1021/acs.jctc.8b01176
      * Hamiltonian:
        H0-scaling (s, p, d)           1.850000    2.230000    2.230000
        zeta-weighting                 0.500000
      * Dispersion:
        s8                             2.700000
        a1                             0.520000
        a2                             5.000000
        s9                             5.000000
      * Repulsion:
        kExp                           1.500000    1.000000
        rExp                           1.000000
      * Coulomb:
        alpha                          2.000000
        third order                    shell-resolved
        anisotropic                    true
        a3                             3.000000
        a5                             4.000000
        cn-shift                       1.200000
        cn-exp                         4.000000
        max-rad                        5.000000


          ...................................................
          :                      SETUP                      :
          :.................................................:
          :  # basis functions                 194          :
          :  # atomic orbitals                 194          :
          :  # shells                          106          :
          :  # electrons                       206          :
          :  max. iterations                   250          :
          :  Hamiltonian                  GFN2-xTB          :
          :  restarted?                      false          :
          :  GBSA solvation                  false          :
          :  PC potential                    false          :
          :  electronic temp.          300.0000000     K    :
          :  accuracy                    1.0000000          :
          :  -> integral cutoff          0.2500000E+02      :
          :  -> integral neglect         0.1000000E-07      :
          :  -> SCF convergence          0.1000000E-05 Eh   :
          :  -> wf. convergence          0.1000000E-03 e    :
          :  Broyden damping             0.4000000          :
          :  net charge                          0          :
          :  unpaired electrons                  0          :
          ...................................................

 iter      E             dE          RMSdq      gap      omega  full diag
   1   -114.5875190 -0.114588E+03  0.510E+00    1.08       0.0  T
   2   -114.5929527 -0.543366E-02  0.330E+00    1.01       1.0  T
   3   -114.2107087  0.382244E+00  0.314E+00    1.09       1.0  T
   4   -114.6940348 -0.483326E+00  0.917E-01    0.52       1.0  T
   5   -114.7395780 -0.455432E-01  0.346E-01    0.63       1.0  T
   6   -114.7454012 -0.582325E-02  0.145E-01    0.56       1.0  T
   7   -114.7458209 -0.419686E-03  0.117E-01    0.60       1.0  T
   8   -114.7466021 -0.781158E-03  0.378E-02    0.60       1.0  T
   9   -114.7466374 -0.353001E-04  0.215E-02    0.60       1.0  T
  10   -114.7466579 -0.205096E-04  0.935E-03    0.61       1.4  T
  11   -114.7466609 -0.298549E-05  0.392E-03    0.61       3.2  T
  12   -114.7466616 -0.698621E-06  0.160E-03    0.61       7.9  T
  13   -114.7466616 -0.717309E-07  0.759E-04    0.61      16.7  T
  14   -114.7466617 -0.219113E-07  0.294E-04    0.61      43.1  T

   *** convergence criteria satisfied after 14 iterations ***

         #    Occupation            Energy/Eh            Energy/eV
      -------------------------------------------------------------
         1        2.0000           -0.8669609             -23.5912
       ...           ...                  ...                  ...
        97        2.0000           -0.4168050             -11.3418
        98        2.0000           -0.4061364             -11.0515
        99        2.0000           -0.4018111             -10.9338
       100        2.0000           -0.3976052             -10.8194
       101        2.0000           -0.3826411             -10.4122
       102        2.0000           -0.3736352             -10.1671
       103        2.0000           -0.3657554              -9.9527 (HOMO)
       104        0.0000           -0.3435081              -9.3473 (LUMO)
       105                         -0.3097985              -8.4300
       106                         -0.2939593              -7.9990
       107                         -0.2882784              -7.8445
       108                         -0.2818119              -7.6685
       ...                                ...                  ...
       194                          0.6589549              17.9311
      -------------------------------------------------------------
                  HL-Gap            0.0222472 Eh            0.6054 eV
             Fermi-level           -0.3546317 Eh           -9.6500 eV

 SCC (total)                   0 d,  0 h,  0 min,  0.107 sec
 SCC setup                      ...        0 min,  0.000 sec (  0.428%)
 Dispersion                     ...        0 min,  0.001 sec (  1.000%)
 classical contributions        ...        0 min,  0.000 sec (  0.162%)
 integral evaluation            ...        0 min,  0.011 sec ( 10.197%)
 iterations                     ...        0 min,  0.060 sec ( 55.950%)
 molecular gradient             ...        0 min,  0.034 sec ( 31.876%)
 printout                       ...        0 min,  0.000 sec (  0.379%)

         :::::::::::::::::::::::::::::::::::::::::::::::::::::
         ::                     SUMMARY                     ::
         :::::::::::::::::::::::::::::::::::::::::::::::::::::
         :: total energy            -113.292768019540 Eh    ::
         :: gradient norm              0.326247449722 Eh/a0 ::
         :: HOMO-LUMO gap              0.605378181390 eV    ::
         ::.................................................::
         :: SCC energy              -114.747538092306 Eh    ::
         :: -> isotropic ES            0.070212055156 Eh    ::
         :: -> anisotropic ES          0.003393573411 Eh    ::
         :: -> anisotropic XC          0.077983881597 Eh    ::
         :: -> dispersion             -0.083736416900 Eh    ::
         :: repulsion energy           1.454770072766 Eh    ::
         :: add. restraining           0.000000000000 Eh    ::
         :: total charge              -0.000000000001 e     ::
         :::::::::::::::::::::::::::::::::::::::::::::::::::::

      ----------------------------------------------------------- 
     |                   =====================                   |
     |                        A N C O P T                        |
     |                   =====================                   |
     |               Approximate Normal Coordinate               |
     |                Rational Function Optimizer                |
      ----------------------------------------------------------- 
      ----------------------------------------------------------- 
     |                   =====================                   |
     |                        A N C O P T                        |
     |                   =====================                   |
     |               Approximate Normal Coordinate               |
     |                Rational Function Optimizer                |
      ----------------------------------------------------------- 

          ...................................................
          :                      SETUP                      :
          :.................................................:
          :   optimization level             loose          :
          :   max. optcycles                   500          :
          :   ANC micro-cycles                  20          :
          :   degrees of freedom               180          :
          :.................................................:
          :   RF solver                   davidson          :
          :   write xtbopt.log                true          :
          :   linear?                        false          :
          :   energy convergence         0.5000000E-04 Eh   :
          :   grad. convergence          0.4000000E-02 Eh/α :
          :   maxmium RF displ.          1.0000000          :
          :   Hlow (freq-cutoff)         0.1000000E-01      :
          :   Hmax (freq-cutoff)         5.0000000          :
          :   S6 in model hess.         20.0000000          :
          ...................................................

generating ANC from exact Hessian ...
Using Lindh-Hessian (1995)
 Shifting diagonal of input Hessian by    1.0165407340884600E-002
 Lowest  eigenvalues of input Hessian
    0.010000    0.000000    0.000000    0.000000    0.000000    0.000000
    0.000000    0.010264    0.010308    0.010602    0.010740    0.010995
    0.011372    0.011637    0.011961    0.012245    0.012785    0.013678
 Highest eigenvalues
    1.835728    1.850381    1.886701    1.972971    1.992885    2.028395


........................................................................
.............................. CYCLE    1 ..............................
........................................................................

 iter      E             dE          RMSdq      gap      omega  full diag
   1   -114.7466617 -0.114747E+03  0.155E-04    0.61       0.0  T
   2   -114.7466617  0.174182E-09  0.137E-04    0.61      92.9  T
   3   -114.7466617 -0.106677E-08  0.650E-05    0.61     195.3  T
     SCC iter.                  ...        0 min,  0.013 sec
     gradient                   ...        0 min,  0.034 sec
 * total energy  :  -113.2927680 Eh     change       -0.2939387E-08 Eh
   gradient norm :     0.3262478 Eh/α   predicted     0.0000000E+00 (-100.00%)
   displ. norm   :     0.5840491 α      lambda       -0.1290420E+00
   maximum displ.:     0.1591351 α      in ANC's #28, #99, #87, ...

........................................................................
.............................. CYCLE    2 ..............................
........................................................................

 iter      E             dE          RMSdq      gap      omega  full diag
   1   -114.9713551 -0.114971E+03  0.342E-01    0.74       0.0  T
   2   -114.9716744 -0.319282E-03  0.227E-01    0.80       1.0  T
   3   -114.9705246  0.114983E-02  0.180E-01    0.78       1.0  T
   4   -114.9716561 -0.113158E-02  0.891E-02    0.79       1.0  T
   5   -114.9722389 -0.582745E-03  0.264E-02    0.78       1.0  T
   6   -114.9722842 -0.453098E-04  0.787E-03    0.79       1.6  T
   7   -114.9722859 -0.168133E-05  0.455E-03    0.79       2.8  T
   8   -114.9722866 -0.747199E-06  0.201E-03    0.79       6.3  T
   9   -114.9722867 -0.672039E-07  0.104E-03    0.79      12.3  T
  10   -114.9722867 -0.508727E-07  0.367E-04    0.79      34.6  T
  11   -114.9722867 -0.424374E-08  0.169E-04    0.79      75.0  T
     SCC iter.                  ...        0 min,  0.043 sec
     gradient                   ...        0 min,  0.034 sec
 * total energy  :  -113.3908861 Eh     change       -0.9811803E-01 Eh
   gradient norm :     0.1344674 Eh/α   predicted    -0.8665512E-01 ( -11.68%)
   displ. norm   :     0.6893507 α      lambda       -0.6760601E-01
   maximum displ.:     0.2590178 α      in ANC's #28, #19, #21, ...

........................................................................
.............................. CYCLE    3 ..............................
........................................................................

 iter      E             dE          RMSdq      gap      omega  full diag
   1   -115.1421343 -0.115142E+03  0.302E-01    0.92       0.0  T
   2   -115.1424930 -0.358679E-03  0.198E-01    0.96       1.0  T
   3   -115.1416428  0.850166E-03  0.144E-01    0.93       1.0  T
   4   -115.1424730 -0.830163E-03  0.719E-02    0.95       1.0  T
   5   -115.1428368 -0.363799E-03  0.218E-02    0.94       1.0  T
   6   -115.1428641 -0.273069E-04  0.657E-03    0.95       1.9  T
   7   -115.1428650 -0.863000E-06  0.339E-03    0.95       3.7  T
   8   -115.1428655 -0.569877E-06  0.138E-03    0.95       9.2  T
   9   -115.1428655 -0.700135E-08  0.876E-04    0.95      14.5  T
  10   -115.1428656 -0.371681E-07  0.194E-04    0.95      65.3  T
     SCC iter.                  ...        0 min,  0.039 sec
     gradient                   ...        0 min,  0.034 sec
 * total energy  :  -113.4411487 Eh     change       -0.5026261E-01 Eh
   gradient norm :     0.0803721 Eh/α   predicted    -0.4986642E-01 (  -0.79%)
   displ. norm   :     0.7537123 α      lambda       -0.3673004E-01
   maximum displ.:     0.3445946 α      in ANC's #28, #19, #21, ...

........................................................................
.............................. CYCLE    4 ..............................
........................................................................

 iter      E             dE          RMSdq      gap      omega  full diag
   1   -115.2297516 -0.115230E+03  0.231E-01    1.03       0.0  T
   2   -115.2298971 -0.145580E-03  0.144E-01    1.04       1.0  T
   3   -115.2292648  0.632371E-03  0.101E-01    1.02       1.0  T
   4   -115.2299052 -0.640385E-03  0.357E-02    1.04       1.0  T
   5   -115.2299856 -0.804885E-04  0.133E-02    1.03       1.0  T
   6   -115.2299946 -0.892873E-05  0.491E-03    1.03       2.6  T
   7   -115.2299957 -0.114983E-05  0.147E-03    1.03       8.6  T
   8   -115.2299958 -0.723413E-07  0.735E-04    1.03      17.3  T
   9   -115.2299958 -0.582999E-08  0.373E-04    1.03      34.1  T
     SCC iter.                  ...        0 min,  0.035 sec
     gradient                   ...        0 min,  0.034 sec
 * total energy  :  -113.4702016 Eh     change       -0.2905299E-01 Eh
   gradient norm :     0.0451572 Eh/α   predicted    -0.2879791E-01 (  -0.88%)
   displ. norm   :     0.7920938 α      lambda       -0.2475556E-01
   maximum displ.:     0.3403784 α      in ANC's #28, #19, #21, ...

........................................................................
.............................. CYCLE    5 ..............................
........................................................................

 iter      E             dE          RMSdq      gap      omega  full diag
   1   -115.2995239 -0.115300E+03  0.206E-01    1.08       0.0  T
   2   -115.2995537 -0.297724E-04  0.124E-01    1.08       1.0  T
   3   -115.2993380  0.215631E-03  0.576E-02    1.07       1.0  T
   4   -115.2995603 -0.222293E-03  0.153E-02    1.08       1.0  T
   5   -115.2995754 -0.151040E-04  0.634E-03    1.08       2.0  T
   6   -115.2995774 -0.196995E-05  0.251E-03    1.08       5.1  T
   7   -115.2995777 -0.291202E-06  0.862E-04    1.08      14.7  T
   8   -115.2995777 -0.271199E-07  0.413E-04    1.08      30.7  T
     SCC iter.                  ...        0 min,  0.031 sec
     gradient                   ...        0 min,  0.034 sec
 * total energy  :  -113.4908961 Eh     change       -0.2069445E-01 Eh
   gradient norm :     0.0305810 Eh/α   predicted    -0.2014377E-01 (  -2.66%)
   displ. norm   :     0.8053324 α      lambda       -0.1802525E-01
   maximum displ.:     0.3336681 α      in ANC's #19, #21, #28, ...

........................................................................
.............................. CYCLE    6 ..............................
........................................................................

 iter      E             dE          RMSdq      gap      omega  full diag
   1   -115.3459583 -0.115346E+03  0.235E-01    1.10       0.0  T
   2   -115.3459854 -0.271162E-04  0.138E-01    1.09       1.0  T
   3   -115.3458767  0.108640E-03  0.393E-02    1.09       1.0  T
   4   -115.3459996 -0.122889E-03  0.885E-03    1.09       1.4  T
   5   -115.3460017 -0.207518E-05  0.587E-03    1.09       2.2  T
   6   -115.3460033 -0.158403E-05  0.245E-03    1.09       5.2  T
   7   -115.3460036 -0.274255E-06  0.913E-04    1.09      13.9  T
   8   -115.3460036 -0.357492E-07  0.329E-04    1.09      38.6  T
     SCC iter.                  ...        0 min,  0.031 sec
     gradient                   ...        0 min,  0.034 sec
 * total energy  :  -113.5053488 Eh     change       -0.1445274E-01 Eh
   gradient norm :     0.0237043 Eh/α   predicted    -0.1485786E-01 (   2.80%)
   displ. norm   :     0.8420928 α      lambda       -0.1434649E-01
   maximum displ.:     0.3375925 α      in ANC's #19, #12, #20, ...

........................................................................
.............................. CYCLE    7 ..............................
........................................................................

 iter      E             dE          RMSdq      gap      omega  full diag
   1   -115.3780132 -0.115378E+03  0.461E-01    1.10       0.0  T
   2   -115.3781311 -0.117931E-03  0.258E-01    1.10       1.0  T
   3   -115.3779465  0.184600E-03  0.618E-02    1.09       1.0  T
   4   -115.3781913 -0.244722E-03  0.135E-02    1.10       1.0  T
   5   -115.3781923 -0.104487E-05  0.791E-03    1.10       1.6  T
   6   -115.3781951 -0.275724E-05  0.307E-03    1.10       4.1  T
   7   -115.3781956 -0.570479E-06  0.128E-03    1.10      10.0  T
   8   -115.3781957 -0.746180E-07  0.509E-04    1.10      24.9  T
   9   -115.3781957 -0.775904E-08  0.200E-04    1.10      63.6  T
     SCC iter.                  ...        0 min,  0.035 sec
     gradient                   ...        0 min,  0.034 sec
 * total energy  :  -113.5124343 Eh     change       -0.7085501E-02 Eh
   gradient norm :     0.0469387 Eh/α   predicted    -0.1225995E-01 (  73.03%)
   displ. norm   :     0.6264875 α      lambda       -0.1219367E-01
   maximum displ.:     0.2512159 α      in ANC's #12, #16, #19, ...

........................................................................
.............................. CYCLE    8 ..............................
........................................................................

 iter      E             dE          RMSdq      gap      omega  full diag
   1   -115.4199815 -0.115420E+03  0.402E-01    1.12       0.0  T
   2   -115.4200829 -0.101393E-03  0.224E-01    1.13       1.0  T
   3   -115.4199847  0.982495E-04  0.481E-02    1.12       1.0  T
   4   -115.4201260 -0.141350E-03  0.108E-02    1.12       1.2  T
   5   -115.4201275 -0.144316E-05  0.773E-03    1.12       1.6  T
   6   -115.4201302 -0.273844E-05  0.296E-03    1.12       4.3  T
   7   -115.4201307 -0.440827E-06  0.950E-04    1.12      13.4  T
   8   -115.4201307 -0.556575E-07  0.361E-04    1.12      35.2  T
     SCC iter.                  ...        0 min,  0.031 sec
     gradient                   ...        0 min,  0.034 sec
 * total energy  :  -113.5192323 Eh     change       -0.6797970E-02 Eh
   gradient norm :     0.0410482 Eh/α   predicted    -0.8489765E-02 (  24.89%)
   displ. norm   :     0.5696917 α      lambda       -0.4481649E-02
   maximum displ.:     0.2732497 α      in ANC's #12, #11, #16, ...

........................................................................
.............................. CYCLE    9 ..............................
........................................................................

 iter      E             dE          RMSdq      gap      omega  full diag
   1   -115.4257287 -0.115426E+03  0.140E-01    1.13       0.0  T
   2   -115.4257386 -0.988443E-05  0.820E-02    1.13       1.0  T
   3   -115.4256625  0.761363E-04  0.333E-02    1.13       1.0  T
   4   -115.4257440 -0.814946E-04  0.659E-03    1.13       1.9  T
   5   -115.4257459 -0.191305E-05  0.372E-03    1.13       3.4  T
   6   -115.4257465 -0.568318E-06  0.160E-03    1.13       7.9  T
   7   -115.4257465 -0.787719E-07  0.690E-04    1.13      18.4  T
   8   -115.4257466 -0.186342E-07  0.206E-04    1.13      61.8  T
     SCC iter.                  ...        0 min,  0.033 sec
     gradient                   ...        0 min,  0.034 sec
 * total energy  :  -113.5224811 Eh     change       -0.3248815E-02 Eh
   gradient norm :     0.0134381 Eh/α   predicted    -0.2968085E-02 (  -8.64%)
   displ. norm   :     0.5855031 α      lambda       -0.2872196E-02
   maximum displ.:     0.2909031 α      in ANC's #11, #12, #13, ...

........................................................................
.............................. CYCLE   10 ..............................
........................................................................

 iter      E             dE          RMSdq      gap      omega  full diag
   1   -115.4354701 -0.115435E+03  0.144E-01    1.14       0.0  T
   2   -115.4354779 -0.773281E-05  0.839E-02    1.14       1.0  T
   3   -115.4354374  0.404595E-04  0.238E-02    1.14       1.0  T
   4   -115.4354811 -0.436790E-04  0.645E-03    1.14       2.0  T
   5   -115.4354832 -0.211393E-05  0.304E-03    1.14       4.2  T
   6   -115.4354834 -0.200326E-06  0.103E-03    1.14      12.3  T
   7   -115.4354834 -0.463436E-07  0.371E-04    1.14      34.2  T
   8   -115.4354834 -0.440193E-08  0.181E-04    1.14      70.1  T
     SCC iter.                  ...        0 min,  0.033 sec
     gradient                   ...        0 min,  0.034 sec
 * total energy  :  -113.5246001 Eh     change       -0.2118933E-02 Eh
   gradient norm :     0.0079500 Eh/α   predicted    -0.1928412E-02 (  -8.99%)
   displ. norm   :     0.5413961 α      lambda       -0.1740975E-02
   maximum displ.:     0.2679876 α      in ANC's #11, #12, #13, ...

........................................................................
.............................. CYCLE   11 ..............................
........................................................................

 iter      E             dE          RMSdq      gap      omega  full diag
   1   -115.4335557 -0.115434E+03  0.144E-01    1.14       0.0  T
   2   -115.4335642 -0.845365E-05  0.839E-02    1.14       1.0  T
   3   -115.4335471  0.170542E-04  0.173E-02    1.14       1.0  T
   4   -115.4335678 -0.207063E-04  0.508E-03    1.14       2.5  T
   5   -115.4335682 -0.362514E-06  0.356E-03    1.14       3.6  T
   6   -115.4335688 -0.616719E-06  0.122E-03    1.14      10.4  T
   7   -115.4335689 -0.872496E-07  0.365E-04    1.14      34.8  T
   8   -115.4335689 -0.363546E-08  0.187E-04    1.14      68.1  T
     SCC iter.                  ...        0 min,  0.034 sec
     gradient                   ...        0 min,  0.034 sec
 * total energy  :  -113.5258079 Eh     change       -0.1207835E-02 Eh
   gradient norm :     0.0113784 Eh/α   predicted    -0.1125640E-02 (  -6.81%)
   displ. norm   :     0.4799462 α      lambda       -0.1106802E-02
   maximum displ.:     0.2226462 α      in ANC's #11, #3, #8, ...

........................................................................
.............................. CYCLE   12 ..............................
........................................................................

 iter      E             dE          RMSdq      gap      omega  full diag
   1   -115.4338838 -0.115434E+03  0.136E-01    1.14       0.0  T
   2   -115.4338929 -0.906521E-05  0.784E-02    1.14       1.0  T
   3   -115.4338809  0.119379E-04  0.146E-02    1.14       1.0  T
   4   -115.4338970 -0.160714E-04  0.438E-03    1.14       2.9  T
   5   -115.4338968  0.147902E-06  0.321E-03    1.14       4.0  T
   6   -115.4338974 -0.557809E-06  0.104E-03    1.14      12.2  T
   7   -115.4338975 -0.723642E-07  0.379E-04    1.14      33.5  T
   8   -115.4338975 -0.560688E-08  0.169E-04    1.14      75.0  T
     SCC iter.                  ...        0 min,  0.033 sec
     gradient                   ...        0 min,  0.035 sec
 * total energy  :  -113.5264459 Eh     change       -0.6379974E-03 Eh
   gradient norm :     0.0161403 Eh/α   predicted    -0.6808777E-03 (   6.72%)
   displ. norm   :     0.3676246 α      lambda       -0.7273769E-03
   maximum displ.:     0.1794966 α      in ANC's #3, #8, #11, ...

........................................................................
.............................. CYCLE   13 ..............................
........................................................................

 iter      E             dE          RMSdq      gap      omega  full diag
   1   -115.4347514 -0.115435E+03  0.110E-01    1.13       0.0  T
   2   -115.4347567 -0.531498E-05  0.634E-02    1.13       1.0  T
   3   -115.4347525  0.424485E-05  0.101E-02    1.13       1.3  T
   4   -115.4347588 -0.636843E-05  0.326E-03    1.13       3.9  T
   5   -115.4347588 -0.483330E-08  0.225E-03    1.13       5.6  T
   6   -115.4347591 -0.242366E-06  0.871E-04    1.13      14.6  T
   7   -115.4347591 -0.491984E-07  0.249E-04    1.13      51.1  T
     SCC iter.                  ...        0 min,  0.029 sec
     gradient                   ...        0 min,  0.034 sec
 * total energy  :  -113.5269635 Eh     change       -0.5176143E-03 Eh
   gradient norm :     0.0072808 Eh/α   predicted    -0.4128412E-03 ( -20.24%)
   displ. norm   :     0.3693726 α      lambda       -0.5514160E-03
   maximum displ.:     0.2131696 α      in ANC's #3, #8, #2, ...

........................................................................
.............................. CYCLE   14 ..............................
........................................................................

 iter      E             dE          RMSdq      gap      omega  full diag
   1   -115.4371362 -0.115437E+03  0.108E-01    1.13       0.0  T
   2   -115.4371408 -0.461021E-05  0.622E-02    1.12       1.0  T
   3   -115.4371358  0.497684E-05  0.104E-02    1.12       1.2  T
   4   -115.4371430 -0.713086E-05  0.290E-03    1.12       4.4  T
   5   -115.4371429  0.400849E-07  0.194E-03    1.12       6.5  T
   6   -115.4371431 -0.171986E-06  0.617E-04    1.12      20.6  T
   7   -115.4371431 -0.277295E-07  0.215E-04    1.12      59.1  T
     SCC iter.                  ...        0 min,  0.029 sec
     gradient                   ...        0 min,  0.034 sec
 * total energy  :  -113.5273991 Eh     change       -0.4356106E-03 Eh
   gradient norm :     0.0045220 Eh/α   predicted    -0.3133268E-03 ( -28.07%)
   displ. norm   :     0.4252410 α      lambda       -0.5289466E-03
   maximum displ.:     0.2560607 α      in ANC's #3, #8, #2, ...

........................................................................
.............................. CYCLE   15 ..............................
........................................................................

 iter      E             dE          RMSdq      gap      omega  full diag
   1   -115.4380263 -0.115438E+03  0.119E-01    1.12       0.0  T
   2   -115.4380316 -0.523358E-05  0.681E-02    1.12       1.0  T
   3   -115.4380255  0.607087E-05  0.106E-02    1.11       1.2  T
   4   -115.4380336 -0.806752E-05  0.381E-03    1.12       3.3  T
   5   -115.4380339 -0.286026E-06  0.251E-03    1.12       5.1  T
   6   -115.4380342 -0.301979E-06  0.722E-04    1.12      17.6  T
   7   -115.4380342 -0.345846E-07  0.197E-04    1.12      64.6  T
     SCC iter.                  ...        0 min,  0.029 sec
     gradient                   ...        0 min,  0.044 sec
 * total energy  :  -113.5278120 Eh     change       -0.4128570E-03 Eh
   gradient norm :     0.0049377 Eh/α   predicted    -0.3122982E-03 ( -24.36%)
   displ. norm   :     0.4396791 α      lambda       -0.4489902E-03
   maximum displ.:     0.2738001 α      in ANC's #3, #2, #8, ...

........................................................................
.............................. CYCLE   16 ..............................
........................................................................

 iter      E             dE          RMSdq      gap      omega  full diag
   1   -115.4382741 -0.115438E+03  0.104E-01    1.11       0.0  T
   2   -115.4382778 -0.363443E-05  0.603E-02    1.11       1.0  T
   3   -115.4382733  0.447374E-05  0.933E-03    1.11       1.4  T
   4   -115.4382792 -0.589396E-05  0.290E-03    1.11       4.4  T
   5   -115.4382793 -0.605331E-07  0.212E-03    1.11       6.0  T
   6   -115.4382795 -0.233674E-06  0.757E-04    1.11      16.8  T
   7   -115.4382795 -0.349020E-07  0.195E-04    1.11      65.0  T
     SCC iter.                  ...        0 min,  0.030 sec
     gradient                   ...        0 min,  0.035 sec
 * total energy  :  -113.5281646 Eh     change       -0.3526120E-03 Eh
   gradient norm :     0.0061891 Eh/α   predicted    -0.2678975E-03 ( -24.02%)
   displ. norm   :     0.4244732 α      lambda       -0.3851563E-03
   maximum displ.:     0.2710712 α      in ANC's #3, #2, #8, ...

........................................................................
.............................. CYCLE   17 ..............................
........................................................................

 iter      E             dE          RMSdq      gap      omega  full diag
   1   -115.4390289 -0.115439E+03  0.824E-02    1.10       0.0  T
   2   -115.4390305 -0.161311E-05  0.479E-02    1.11       1.0  T
   3   -115.4390226  0.786342E-05  0.106E-02    1.10       1.2  T
   4   -115.4390312 -0.856373E-05  0.281E-03    1.10       4.5  T
   5   -115.4390316 -0.382768E-06  0.136E-03    1.10       9.3  T
   6   -115.4390316 -0.535553E-07  0.369E-04    1.10      34.5  T
   7   -115.4390316 -0.634323E-08  0.138E-04    1.10      92.1  T
     SCC iter.                  ...        0 min,  0.029 sec
     gradient                   ...        0 min,  0.035 sec
 * total energy  :  -113.5284852 Eh     change       -0.3206475E-03 Eh
   gradient norm :     0.0064022 Eh/α   predicted    -0.2272778E-03 ( -29.12%)
   displ. norm   :     0.4462141 α      lambda       -0.3970223E-03
   maximum displ.:     0.2904668 α      in ANC's #3, #2, #6, ...

........................................................................
.............................. CYCLE   18 ..............................
........................................................................

 iter      E             dE          RMSdq      gap      omega  full diag
   1   -115.4396076 -0.115440E+03  0.725E-02    1.10       0.0  T
   2   -115.4396087 -0.108861E-05  0.425E-02    1.10       1.0  T
   3   -115.4396039  0.481857E-05  0.876E-03    1.10       1.5  T
   4   -115.4396090 -0.512950E-05  0.242E-03    1.10       5.2  T
   5   -115.4396094 -0.344332E-06  0.112E-03    1.10      11.3  T
   6   -115.4396094 -0.441716E-07  0.362E-04    1.10      35.1  T
   7   -115.4396094 -0.439167E-08  0.129E-04    1.10      98.3  T
     SCC iter.                  ...        0 min,  0.030 sec
     gradient                   ...        0 min,  0.034 sec
 * total energy  :  -113.5288228 Eh     change       -0.3375691E-03 Eh
   gradient norm :     0.0063406 Eh/α   predicted    -0.2380391E-03 ( -29.48%)
   displ. norm   :     0.4978797 α      lambda       -0.4466989E-03
   maximum displ.:     0.3270653 α      in ANC's #3, #2, #6, ...

........................................................................
.............................. CYCLE   19 ..............................
........................................................................

 iter      E             dE          RMSdq      gap      omega  full diag
   1   -115.4410339 -0.115441E+03  0.783E-02    1.09       0.0  T
   2   -115.4410354 -0.149589E-05  0.457E-02    1.09       1.0  T
   3   -115.4410328  0.261344E-05  0.661E-03    1.09       1.9  T
   4   -115.4410361 -0.331057E-05  0.167E-03    1.09       7.6  T
   5   -115.4410361 -0.103206E-07  0.119E-03    1.09      10.7  T
   6   -115.4410362 -0.527509E-07  0.569E-04    1.09      22.3  T
   7   -115.4410362 -0.216185E-07  0.164E-04    1.09      77.7  T
     SCC iter.                  ...        0 min,  0.028 sec
     gradient                   ...        0 min,  0.035 sec
 * total energy  :  -113.5291957 Eh     change       -0.3728522E-03 Eh
   gradient norm :     0.0078812 Eh/α   predicted    -0.2787152E-03 ( -25.25%)
   displ. norm   :     0.5467947 α      lambda       -0.4817111E-03
   maximum displ.:     0.3602430 α      in ANC's #3, #2, #6, ...

........................................................................
.............................. CYCLE   20 ..............................
........................................................................

 iter      E             dE          RMSdq      gap      omega  full diag
   1   -115.4404690 -0.115440E+03  0.911E-02    1.09       0.0  T
   2   -115.4404714 -0.245031E-05  0.526E-02    1.09       1.0  T
   3   -115.4404680  0.344582E-05  0.780E-03    1.09       1.6  T
   4   -115.4404724 -0.437780E-05  0.279E-03    1.09       4.6  T
   5   -115.4404725 -0.147239E-06  0.186E-03    1.09       6.8  T
   6   -115.4404727 -0.173718E-06  0.490E-04    1.09      25.9  T
   7   -115.4404727 -0.123546E-07  0.159E-04    1.09      79.8  T
     SCC iter.                  ...        0 min,  0.028 sec
     gradient                   ...        0 min,  0.034 sec
 * total energy  :  -113.5296164 Eh     change       -0.4207350E-03 Eh
   gradient norm :     0.0063239 Eh/α   predicted    -0.3128702E-03 ( -25.64%)
   displ. norm   :     0.5956443 α      lambda       -0.5169057E-03
   maximum displ.:     0.3928640 α      in ANC's #3, #2, #5, ...
 * RMSD in coord.:     0.9851815 α      energy gain  -0.2368484E+00 Eh

generating ANC from exact Hessian ...
Using Lindh-Hessian (1995)
 Shifting diagonal of input Hessian by    9.8808120509572099E-003
 Lowest  eigenvalues of input Hessian
    0.000000    0.000000    0.000000    0.000000    0.000000    0.000000
    0.010000    0.010113    0.010443    0.010547    0.010795    0.011244
    0.011602    0.011911    0.012605    0.013034    0.013587    0.015208
 Highest eigenvalues
    2.101269    2.106906    2.145940    2.183839    2.207506    2.631780


........................................................................
.............................. CYCLE   21 ..............................
........................................................................

 iter      E             dE          RMSdq      gap      omega  full diag
   1   -115.4401517 -0.115440E+03  0.119E-01    1.09       0.0  T
   2   -115.4401563 -0.464228E-05  0.679E-02    1.08       1.0  T
   3   -115.4401375  0.187929E-04  0.162E-02    1.09       1.0  T
   4   -115.4401587 -0.212119E-04  0.414E-03    1.08       3.1  T
   5   -115.4401593 -0.544247E-06  0.231E-03    1.08       5.5  T
   6   -115.4401595 -0.189215E-06  0.527E-04    1.08      24.1  T
   7   -115.4401595 -0.144848E-07  0.191E-04    1.08      66.5  T
     SCC iter.                  ...        0 min,  0.028 sec
     gradient                   ...        0 min,  0.034 sec
 * total energy  :  -113.5300789 Eh     change       -0.4624899E-03 Eh
   gradient norm :     0.0056575 Eh/α   predicted     0.0000000E+00 (-100.00%)
   displ. norm   :     0.0960140 α      lambda       -0.1259929E-03
   maximum displ.:     0.0513970 α      in ANC's #2, #1, #8, ...

........................................................................
.............................. CYCLE   22 ..............................
........................................................................

 iter      E             dE          RMSdq      gap      omega  full diag
   1   -115.4404854 -0.115440E+03  0.378E-02    1.09       0.0  T
   2   -115.4404862 -0.843229E-06  0.215E-02    1.09       1.0  T
   3   -115.4404830  0.324391E-05  0.690E-03    1.09       1.8  T
   4   -115.4404866 -0.359430E-05  0.179E-03    1.09       7.1  T
   5   -115.4404868 -0.182895E-06  0.763E-04    1.09      16.7  T
   6   -115.4404868 -0.115258E-07  0.257E-04    1.09      49.5  T
     SCC iter.                  ...        0 min,  0.025 sec
     gradient                   ...        0 min,  0.034 sec
 * total energy  :  -113.5301991 Eh     change       -0.1201975E-03 Eh
   gradient norm :     0.0034016 Eh/α   predicted    -0.7787087E-04 ( -35.21%)
   displ. norm   :     0.3256340 α      lambda       -0.4255560E-03
   maximum displ.:     0.1739331 α      in ANC's #2, #1, #8, ...

........................................................................
.............................. CYCLE   23 ..............................
........................................................................

 iter      E             dE          RMSdq      gap      omega  full diag
   1   -115.4409259 -0.115441E+03  0.127E-01    1.09       0.0  T
   2   -115.4409340 -0.812488E-05  0.721E-02    1.09       1.0  T
   3   -115.4409009  0.331110E-04  0.219E-02    1.09       1.0  T
   4   -115.4409378 -0.369003E-04  0.528E-03    1.09       2.4  T
   5   -115.4409391 -0.128090E-05  0.248E-03    1.09       5.1  T
   6   -115.4409393 -0.145709E-06  0.744E-04    1.09      17.1  T
   7   -115.4409393 -0.299819E-07  0.240E-04    1.09      52.8  T
     SCC iter.                  ...        0 min,  0.028 sec
     gradient                   ...        0 min,  0.034 sec
 * total energy  :  -113.5303724 Eh     change       -0.1733629E-03 Eh
   gradient norm :     0.0083896 Eh/α   predicted    -0.2353448E-03 (  35.75%)
   displ. norm   :     0.1544064 α      lambda       -0.2161664E-03
   maximum displ.:     0.0885735 α      in ANC's #2, #1, #8, ...

........................................................................
.............................. CYCLE   24 ..............................
........................................................................

 iter      E             dE          RMSdq      gap      omega  full diag
   1   -115.4410038 -0.115441E+03  0.554E-02    1.09       0.0  T
   2   -115.4410056 -0.179479E-05  0.314E-02    1.09       1.0  T
   3   -115.4410020  0.362014E-05  0.728E-03    1.09       1.7  T
   4   -115.4410064 -0.438885E-05  0.210E-03    1.09       6.0  T
   5   -115.4410065 -0.177957E-06  0.106E-03    1.09      12.0  T
   6   -115.4410066 -0.337182E-07  0.285E-04    1.09      44.5  T
   7   -115.4410066 -0.531423E-08  0.101E-04    1.09     125.2  T
     SCC iter.                  ...        0 min,  0.028 sec
     gradient                   ...        0 min,  0.034 sec
 * total energy  :  -113.5305294 Eh     change       -0.1570052E-03 Eh
   gradient norm :     0.0056630 Eh/α   predicted    -0.1106683E-03 ( -29.51%)
   displ. norm   :     0.2213663 α      lambda       -0.1994667E-03
   maximum displ.:     0.1352753 α      in ANC's #1, #2, #8, ...

........................................................................
.............................. CYCLE   25 ..............................
........................................................................

 iter      E             dE          RMSdq      gap      omega  full diag
   1   -115.4401260 -0.115440E+03  0.530E-02    1.09       0.0  T
   2   -115.4401271 -0.114910E-05  0.305E-02    1.09       1.0  T
   3   -115.4401225  0.461189E-05  0.785E-03    1.09       1.6  T
   4   -115.4401276 -0.509382E-05  0.233E-03    1.09       5.5  T
   5   -115.4401279 -0.265884E-06  0.109E-03    1.09      11.6  T
   6   -115.4401279 -0.276663E-07  0.395E-04    1.09      32.1  T
   7   -115.4401279 -0.956278E-08  0.103E-04    1.09     123.8  T
     SCC iter.                  ...        0 min,  0.038 sec
     gradient                   ...        0 min,  0.034 sec
 * total energy  :  -113.5306946 Eh     change       -0.1651114E-03 Eh
   gradient norm :     0.0040442 Eh/α   predicted    -0.1046241E-03 ( -36.63%)
   displ. norm   :     0.3135740 α      lambda       -0.2387359E-03
   maximum displ.:     0.1950417 α      in ANC's #1, #2, #8, ...

........................................................................
.............................. CYCLE   26 ..............................
........................................................................

 iter      E             dE          RMSdq      gap      omega  full diag
   1   -115.4398212 -0.115440E+03  0.675E-02    1.09       0.0  T
   2   -115.4398230 -0.171575E-05  0.387E-02    1.09       1.0  T
   3   -115.4398180  0.491162E-05  0.814E-03    1.09       1.6  T
   4   -115.4398236 -0.550830E-05  0.276E-03    1.08       4.6  T
   5   -115.4398239 -0.348067E-06  0.136E-03    1.09       9.4  T
   6   -115.4398240 -0.525961E-07  0.461E-04    1.08      27.6  T
   7   -115.4398240 -0.133507E-07  0.125E-04    1.09     101.8  T
     SCC iter.                  ...        0 min,  0.029 sec
     gradient                   ...        0 min,  0.035 sec
 * total energy  :  -113.5308985 Eh     change       -0.2039512E-03 Eh
   gradient norm :     0.0040689 Eh/α   predicted    -0.1311091E-03 ( -35.72%)
   displ. norm   :     0.3794997 α      lambda       -0.2473310E-03
   maximum displ.:     0.2403705 α      in ANC's #1, #2, #8, ...

........................................................................
.............................. CYCLE   27 ..............................
........................................................................

 iter      E             dE          RMSdq      gap      omega  full diag
   1   -115.4394673 -0.115439E+03  0.792E-02    1.08       0.0  T
   2   -115.4394695 -0.225670E-05  0.452E-02    1.08       1.0  T
   3   -115.4394646  0.495199E-05  0.849E-03    1.08       1.5  T
   4   -115.4394704 -0.582006E-05  0.283E-03    1.08       4.5  T
   5   -115.4394707 -0.272311E-06  0.151E-03    1.08       8.4  T
   6   -115.4394707 -0.862001E-07  0.389E-04    1.08      32.6  T
   7   -115.4394708 -0.878718E-08  0.121E-04    1.08     105.3  T
     SCC iter.                  ...        0 min,  0.028 sec
     gradient                   ...        0 min,  0.034 sec
 * total energy  :  -113.5311150 Eh     change       -0.2165429E-03 Eh
   gradient norm :     0.0041783 Eh/α   predicted    -0.1414791E-03 ( -34.66%)
   displ. norm   :     0.3976688 α      lambda       -0.2339269E-03
   maximum displ.:     0.2590730 α      in ANC's #1, #2, #8, ...

........................................................................
.............................. CYCLE   28 ..............................
........................................................................

 iter      E             dE          RMSdq      gap      omega  full diag
   1   -115.4400909 -0.115440E+03  0.730E-02    1.08       0.0  T
   2   -115.4400927 -0.178595E-05  0.418E-02    1.08       1.0  T
   3   -115.4400880  0.472442E-05  0.823E-03    1.08       1.5  T
   4   -115.4400934 -0.549079E-05  0.247E-03    1.08       5.1  T
   5   -115.4400936 -0.173962E-06  0.136E-03    1.08       9.4  T
   6   -115.4400937 -0.763022E-07  0.306E-04    1.08      41.5  T
   7   -115.4400937 -0.460626E-08  0.106E-04    1.08     119.7  T
     SCC iter.                  ...        0 min,  0.028 sec
     gradient                   ...        0 min,  0.034 sec
 * total energy  :  -113.5313229 Eh     change       -0.2078928E-03 Eh
   gradient norm :     0.0034363 Eh/α   predicted    -0.1354608E-03 ( -34.84%)
   displ. norm   :     0.4000202 α      lambda       -0.2188577E-03
   maximum displ.:     0.2684133 α      in ANC's #1, #2, #4, ...

........................................................................
.............................. CYCLE   29 ..............................
........................................................................

 iter      E             dE          RMSdq      gap      omega  full diag
   1   -115.4411218 -0.115441E+03  0.623E-02    1.08       0.0  T
   2   -115.4411230 -0.120019E-05  0.359E-02    1.08       1.0  T
   3   -115.4411182  0.476806E-05  0.811E-03    1.08       1.6  T
   4   -115.4411236 -0.532707E-05  0.221E-03    1.08       5.7  T
   5   -115.4411237 -0.162099E-06  0.122E-03    1.08      10.4  T
   6   -115.4411238 -0.557380E-07  0.295E-04    1.08      43.1  T
   7   -115.4411238 -0.394412E-08  0.101E-04    1.08     125.5  T
     SCC iter.                  ...        0 min,  0.028 sec
     gradient                   ...        0 min,  0.034 sec
 * total energy  :  -113.5315228 Eh     change       -0.1998398E-03 Eh
   gradient norm :     0.0027217 Eh/α   predicted    -0.1269419E-03 ( -36.48%)
   displ. norm   :     0.4189045 α      lambda       -0.2273807E-03
   maximum displ.:     0.2874907 α      in ANC's #1, #2, #4, ...

........................................................................
.............................. CYCLE   30 ..............................
........................................................................

 iter      E             dE          RMSdq      gap      omega  full diag
   1   -115.4422344 -0.115442E+03  0.553E-02    1.08       0.0  T
   2   -115.4422353 -0.836055E-06  0.321E-02    1.08       1.0  T
   3   -115.4422305  0.473167E-05  0.796E-03    1.08       1.6  T
   4   -115.4422357 -0.515531E-05  0.203E-03    1.08       6.3  T
   5   -115.4422359 -0.161336E-06  0.109E-03    1.08      11.6  T
   6   -115.4422359 -0.414701E-07  0.292E-04    1.08      43.4  T
   7   -115.4422359 -0.381439E-08  0.105E-04    1.08     121.1  T
     SCC iter.                  ...        0 min,  0.028 sec
     gradient                   ...        0 min,  0.034 sec
 * total energy  :  -113.5317357 Eh     change       -0.2129144E-03 Eh
   gradient norm :     0.0029188 Eh/α   predicted    -0.1336411E-03 ( -37.23%)
   displ. norm   :     0.4791189 α      lambda       -0.2663359E-03
   maximum displ.:     0.3326352 α      in ANC's #1, #2, #4, ...

........................................................................
.............................. CYCLE   31 ..............................
........................................................................

 iter      E             dE          RMSdq      gap      omega  full diag
   1   -115.4427226 -0.115443E+03  0.587E-02    1.08       0.0  T
   2   -115.4427235 -0.871235E-06  0.342E-02    1.08       1.0  T
   3   -115.4427185  0.500741E-05  0.815E-03    1.08       1.6  T
   4   -115.4427239 -0.543803E-05  0.212E-03    1.08       6.0  T
   5   -115.4427241 -0.185998E-06  0.114E-03    1.08      11.1  T
   6   -115.4427241 -0.470547E-07  0.282E-04    1.08      45.1  T
   7   -115.4427242 -0.322649E-08  0.115E-04    1.08     110.7  T
     SCC iter.                  ...        0 min,  0.028 sec
     gradient                   ...        0 min,  0.034 sec
 * total energy  :  -113.5319878 Eh     change       -0.2521078E-03 Eh
   gradient norm :     0.0033068 Eh/α   predicted    -0.1637379E-03 ( -35.05%)
   displ. norm   :     0.5738218 α      lambda       -0.3219692E-03
   maximum displ.:     0.3998742 α      in ANC's #1, #2, #4, ...

........................................................................
.............................. CYCLE   32 ..............................
........................................................................

 iter      E             dE          RMSdq      gap      omega  full diag
   1   -115.4424837 -0.115442E+03  0.698E-02    1.08       0.0  T
   2   -115.4424849 -0.118651E-05  0.409E-02    1.08       1.0  T
   3   -115.4424795  0.537456E-05  0.851E-03    1.08       1.5  T
   4   -115.4424854 -0.590582E-05  0.240E-03    1.08       5.3  T
   5   -115.4424856 -0.223204E-06  0.136E-03    1.08       9.3  T
   6   -115.4424857 -0.762511E-07  0.320E-04    1.08      39.6  T
   7   -115.4424857 -0.389332E-08  0.145E-04    1.08      87.7  T
     SCC iter.                  ...        0 min,  0.028 sec
     gradient                   ...        0 min,  0.034 sec
 * total energy  :  -113.5322910 Eh     change       -0.3031784E-03 Eh
   gradient norm :     0.0035408 Eh/α   predicted    -0.2139934E-03 ( -29.42%)
   displ. norm   :     0.6701613 α      lambda       -0.3634763E-03
   maximum displ.:     0.4679944 α      in ANC's #1, #2, #8, ...

........................................................................
.............................. CYCLE   33 ..............................
........................................................................

 iter      E             dE          RMSdq      gap      omega  full diag
   1   -115.4411735 -0.115441E+03  0.846E-02    1.08       0.0  T
   2   -115.4411753 -0.177804E-05  0.495E-02    1.08       1.0  T
   3   -115.4411698  0.551439E-05  0.886E-03    1.08       1.4  T
   4   -115.4411760 -0.622141E-05  0.279E-03    1.08       4.6  T
   5   -115.4411763 -0.248882E-06  0.172E-03    1.08       7.4  T
   6   -115.4411764 -0.141681E-06  0.381E-04    1.08      33.3  T
   7   -115.4411764 -0.540994E-08  0.177E-04    1.08      71.7  T
     SCC iter.                  ...        0 min,  0.028 sec
     gradient                   ...        0 min,  0.034 sec
 * total energy  :  -113.5326277 Eh     change       -0.3367613E-03 Eh
   gradient norm :     0.0031195 Eh/α   predicted    -0.2633620E-03 ( -21.80%)
   displ. norm   :     0.7471003 α      lambda       -0.3753446E-03
   maximum displ.:     0.5220610 α      in ANC's #1, #2, #8, ...

........................................................................
.............................. CYCLE   34 ..............................
........................................................................

 iter      E             dE          RMSdq      gap      omega  full diag
   1   -115.4399164 -0.115440E+03  0.987E-02    1.08       0.0  T
   2   -115.4399189 -0.245484E-05  0.577E-02    1.08       1.0  T
   3   -115.4399142  0.464437E-05  0.857E-03    1.08       1.5  T
   4   -115.4399199 -0.561339E-05  0.290E-03    1.08       4.4  T
   5   -115.4399200 -0.101899E-06  0.212E-03    1.08       6.0  T
   6   -115.4399202 -0.266389E-06  0.448E-04    1.08      28.3  T
   7   -115.4399202 -0.813787E-08  0.203E-04    1.08      62.4  T
     SCC iter.                  ...        0 min,  0.028 sec
     gradient                   ...        0 min,  0.034 sec
 * total energy  :  -113.5329683 Eh     change       -0.3405136E-03 Eh
   gradient norm :     0.0030186 Eh/α   predicted    -0.2924257E-03 ( -14.12%)
   displ. norm   :     0.7725107 α      lambda       -0.3508381E-03
   maximum displ.:     0.5416298 α      in ANC's #1, #2, #8, ...

........................................................................
.............................. CYCLE   35 ..............................
........................................................................

 iter      E             dE          RMSdq      gap      omega  full diag
   1   -115.4386375 -0.115439E+03  0.108E-01    1.07       0.0  T
   2   -115.4386405 -0.305627E-05  0.630E-02    1.07       1.0  T
   3   -115.4386367  0.381271E-05  0.840E-03    1.07       1.5  T
   4   -115.4386418 -0.509042E-05  0.285E-03    1.07       4.5  T
   5   -115.4386417  0.105874E-06  0.231E-03    1.07       5.5  T
   6   -115.4386421 -0.359365E-06  0.506E-04    1.07      25.1  T
   7   -115.4386421 -0.124983E-07  0.219E-04    1.07      58.1  T
     SCC iter.                  ...        0 min,  0.028 sec
     gradient                   ...        0 min,  0.034 sec
 * total energy  :  -113.5332810 Eh     change       -0.3127676E-03 Eh
   gradient norm :     0.0030493 Eh/α   predicted    -0.2801068E-03 ( -10.44%)
   displ. norm   :     0.7629936 α      lambda       -0.3133652E-03
   maximum displ.:     0.5366275 α      in ANC's #1, #2, #8, ...

........................................................................
.............................. CYCLE   36 ..............................
........................................................................

 iter      E             dE          RMSdq      gap      omega  full diag
   1   -115.4390552 -0.115439E+03  0.112E-01    1.07       0.0  T
   2   -115.4390586 -0.336151E-05  0.653E-02    1.07       1.0  T
   3   -115.4390559  0.271701E-05  0.771E-03    1.07       1.6  T
   4   -115.4390600 -0.416721E-05  0.261E-03    1.07       4.9  T
   5   -115.4390600 -0.166354E-07  0.132E-03    1.07       9.6  T
   6   -115.4390601 -0.987172E-07  0.446E-04    1.07      28.5  T
   7   -115.4390602 -0.104485E-07  0.227E-04    1.07      56.0  T
     SCC iter.                  ...        0 min,  0.028 sec
     gradient                   ...        0 min,  0.034 sec
 * total energy  :  -113.5335567 Eh     change       -0.2757050E-03 Eh
   gradient norm :     0.0028005 Eh/α   predicted    -0.2478972E-03 ( -10.09%)
   displ. norm   :     0.7388133 α      lambda       -0.2735619E-03
   maximum displ.:     0.5237591 α      in ANC's #1, #2, #8, ...

........................................................................
.............................. CYCLE   37 ..............................
........................................................................

 iter      E             dE          RMSdq      gap      omega  full diag
   1   -115.4394944 -0.115439E+03  0.117E-01    1.07       0.0  T
   2   -115.4394985 -0.413839E-05  0.679E-02    1.07       1.0  T
   3   -115.4394961  0.247629E-05  0.809E-03    1.07       1.6  T
   4   -115.4395002 -0.416949E-05  0.297E-03    1.07       4.3  T
   5   -115.4395003 -0.415323E-07  0.145E-03    1.07       8.8  T
   6   -115.4395004 -0.114018E-06  0.420E-04    1.07      30.3  T
   7   -115.4395004 -0.730309E-08  0.225E-04    1.07      56.3  T
     SCC iter.                  ...        0 min,  0.028 sec
     gradient                   ...        0 min,  0.034 sec
 * total energy  :  -113.5337947 Eh     change       -0.2379610E-03 Eh
   gradient norm :     0.0038335 Eh/α   predicted    -0.2114432E-03 ( -11.14%)
   displ. norm   :     0.7179219 α      lambda       -0.2387239E-03
   maximum displ.:     0.5123352 α      in ANC's #1, #2, #8, ...

........................................................................
.............................. CYCLE   38 ..............................
........................................................................

 iter      E             dE          RMSdq      gap      omega  full diag
   1   -115.4414894 -0.115441E+03  0.116E-01    1.07       0.0  T
   2   -115.4414933 -0.387586E-05  0.672E-02    1.07       1.0  T
   3   -115.4414913  0.199292E-05  0.754E-03    1.07       1.7  T
   4   -115.4414948 -0.352675E-05  0.287E-03    1.07       4.4  T
   5   -115.4414949 -0.496148E-07  0.136E-03    1.07       9.3  T
   6   -115.4414950 -0.106301E-06  0.417E-04    1.07      30.4  T
   7   -115.4414950 -0.761766E-08  0.215E-04    1.07      59.0  T
     SCC iter.                  ...        0 min,  0.031 sec
     gradient                   ...        0 min,  0.035 sec
 * total energy  :  -113.5340002 Eh     change       -0.2055408E-03 Eh
   gradient norm :     0.0023645 Eh/α   predicted    -0.1808846E-03 ( -12.00%)
   displ. norm   :     0.7056770 α      lambda       -0.2117808E-03
   maximum displ.:     0.5105555 α      in ANC's #1, #2, #8, ...

........................................................................
.............................. CYCLE   39 ..............................
........................................................................

 iter      E             dE          RMSdq      gap      omega  full diag
   1   -115.4416728 -0.115442E+03  0.129E-01    1.07       0.0  T
   2   -115.4416787 -0.595535E-05  0.741E-02    1.07       1.0  T
   3   -115.4416771  0.158637E-05  0.836E-03    1.07       1.5  T
   4   -115.4416809 -0.380133E-05  0.365E-03    1.07       3.5  T
   5   -115.4416810 -0.611040E-07  0.184E-03    1.07       6.9  T
   6   -115.4416812 -0.222300E-06  0.526E-04    1.07      24.1  T
   7   -115.4416812 -0.150844E-07  0.244E-04    1.07      52.0  T
     SCC iter.                  ...        0 min,  0.029 sec
     gradient                   ...        0 min,  0.034 sec
 * total energy  :  -113.5341801 Eh     change       -0.1798244E-03 Eh
   gradient norm :     0.0050512 Eh/α   predicted    -0.1586241E-03 ( -11.79%)
   displ. norm   :     0.6214773 α      lambda       -0.1842764E-03
   maximum displ.:     0.4551080 α      in ANC's #1, #2, #4, ...

........................................................................
.............................. CYCLE   40 ..............................
........................................................................

 iter      E             dE          RMSdq      gap      omega  full diag
   1   -115.4444056 -0.115444E+03  0.112E-01    1.07       0.0  T
   2   -115.4444098 -0.413560E-05  0.648E-02    1.07       1.0  T
   3   -115.4444084  0.141552E-05  0.725E-03    1.07       1.8  T
   4   -115.4444113 -0.297290E-05  0.297E-03    1.07       4.3  T
   5   -115.4444114 -0.975981E-07  0.122E-03    1.07      10.4  T
   6   -115.4444115 -0.890915E-07  0.300E-04    1.07      42.4  T
   7   -115.4444115 -0.326850E-08  0.143E-04    1.07      88.6  T
     SCC iter.                  ...        0 min,  0.029 sec
     gradient                   ...        0 min,  0.034 sec
 * total energy  :  -113.5343393 Eh     change       -0.1592429E-03 Eh
   gradient norm :     0.0022327 Eh/α   predicted    -0.1277307E-03 ( -19.79%)
   displ. norm   :     0.6503150 α      lambda       -0.1802601E-03
   maximum displ.:     0.4844348 α      in ANC's #1, #2, #4, ...

........................................................................
.............................. CYCLE   41 ..............................
........................................................................

 iter      E             dE          RMSdq      gap      omega  full diag
   1   -115.4436168 -0.115444E+03  0.131E-01    1.07       0.0  T
   2   -115.4436235 -0.662810E-05  0.752E-02    1.07       1.0  T
   3   -115.4436225  0.934894E-06  0.787E-03    1.07       1.6  T
   4   -115.4436257 -0.314690E-05  0.399E-03    1.07       3.2  T
   5   -115.4436257 -0.198890E-07  0.256E-03    1.07       5.0  T
   6   -115.4436262 -0.492396E-06  0.501E-04    1.07      25.3  T
   7   -115.4436262 -0.130083E-07  0.216E-04    1.07      58.8  T
     SCC iter.                  ...        0 min,  0.040 sec
     gradient                   ...        0 min,  0.035 sec
 * total energy  :  -113.5344996 Eh     change       -0.1603428E-03 Eh
   gradient norm :     0.0038994 Eh/α   predicted    -0.1282483E-03 ( -20.02%)
   displ. norm   :     0.6266248 α      lambda       -0.1948622E-03
   maximum displ.:     0.4704601 α      in ANC's #1, #2, #4, ...

........................................................................
.............................. CYCLE   42 ..............................
........................................................................

 iter      E             dE          RMSdq      gap      omega  full diag
   1   -115.4459300 -0.115446E+03  0.136E-01    1.07       0.0  T
   2   -115.4459375 -0.743611E-05  0.780E-02    1.07       1.0  T
   3   -115.4459362  0.124793E-05  0.836E-03    1.07       1.5  T
   4   -115.4459400 -0.380579E-05  0.401E-03    1.07       3.2  T
   5   -115.4459400 -0.943282E-08  0.258E-03    1.07       4.9  T
   6   -115.4459405 -0.489448E-06  0.646E-04    1.07      19.7  T
   7   -115.4459405 -0.253637E-07  0.217E-04    1.07      58.6  T
     SCC iter.                  ...        0 min,  0.028 sec
     gradient                   ...        0 min,  0.034 sec
 * total energy  :  -113.5346668 Eh     change       -0.1671671E-03 Eh
   gradient norm :     0.0038452 Eh/α   predicted    -0.1356909E-03 ( -18.83%)
   displ. norm   :     0.7269896 α      lambda       -0.2030160E-03
   maximum displ.:     0.5499550 α      in ANC's #1, #2, #5, ...
 * RMSD in coord.:     1.3869143 α      energy gain  -0.5050421E-02 Eh

generating ANC from exact Hessian ...
Using Lindh-Hessian (1995)
 Shifting diagonal of input Hessian by    9.8818965208108088E-003
 Lowest  eigenvalues of input Hessian
    0.000000    0.000000    0.000000    0.000000    0.000000    0.000000
    0.010000    0.010128    0.010256    0.010386    0.010687    0.011157
    0.011657    0.011781    0.012285    0.012904    0.013797    0.015015
 Highest eigenvalues
    2.104114    2.106319    2.146916    2.180990    2.203328    2.630630


........................................................................
.............................. CYCLE   43 ..............................
........................................................................

 iter      E             dE          RMSdq      gap      omega  full diag
   1   -115.4415724 -0.115442E+03  0.150E-01    1.07       0.0  T
   2   -115.4415812 -0.877577E-05  0.863E-02    1.07       1.0  T
   3   -115.4415788  0.243271E-05  0.955E-03    1.07       1.3  T
   4   -115.4415840 -0.523975E-05  0.469E-03    1.07       2.7  T
   5   -115.4415841 -0.978520E-07  0.318E-03    1.07       4.0  T
   6   -115.4415848 -0.735843E-06  0.692E-04    1.07      18.3  T
   7   -115.4415849 -0.272634E-07  0.251E-04    1.07      50.6  T
     SCC iter.                  ...        0 min,  0.028 sec
     gradient                   ...        0 min,  0.034 sec
 * total energy  :  -113.5348245 Eh     change       -0.1576900E-03 Eh
   gradient norm :     0.0037843 Eh/α   predicted     0.0000000E+00 (-100.00%)
   displ. norm   :     0.0491819 α      lambda       -0.1454539E-04
   maximum displ.:     0.0222992 α      in ANC's #5, #1, #9, ...

........................................................................
.............................. CYCLE   44 ..............................
........................................................................

 iter      E             dE          RMSdq      gap      omega  full diag
   1   -115.4443286 -0.115444E+03  0.289E-02    1.07       0.0  T
   2   -115.4443290 -0.456852E-06  0.164E-02    1.07       1.0  T
   3   -115.4443286  0.443302E-06  0.295E-03    1.07       4.3  T
   4   -115.4443292 -0.593431E-06  0.108E-03    1.07      11.8  T
   5   -115.4443292 -0.371199E-07  0.607E-04    1.07      20.9  T
   6   -115.4443292 -0.844757E-08  0.299E-04    1.07      42.5  T
     SCC iter.                  ...        0 min,  0.024 sec
     gradient                   ...        0 min,  0.034 sec
 * total energy  :  -113.5348617 Eh     change       -0.3718690E-04 Eh
   gradient norm :     0.0019963 Eh/α   predicted    -0.3188305E-04 ( -14.26%)
   displ. norm   :     0.2106787 α      lambda       -0.1232216E-03
   maximum displ.:     0.1034368 α      in ANC's #1, #5, #13, ...

   *** GEOMETRY OPTIMIZATION CONVERGED AFTER 44 ITERATIONS ***

------------------------------------------------------------------------
 total energy gain   :        -0.2420937 Eh     -151.9161 kcal/mol
 total RMSD          :         2.1147217 a0        1.1191 Å
 total power (kW/mol):       -14.4458371 (step) -187.2951 (real)
------------------------------------------------------------------------

 ANCopt (total)                0 d,  0 h,  0 min,  3.394 sec
 optimizer setup                ...        0 min,  0.000 sec (  0.003%)
 model hessian                  ...        0 min,  0.022 sec (  0.663%)
 ANC generation                 ...        0 min,  0.006 sec (  0.190%)
 coordinate transformation      ...        0 min,  0.001 sec (  0.036%)
 single point calculation       ...        0 min,  3.341 sec ( 98.452%)
 optimization log               ...        0 min,  0.010 sec (  0.295%)
 hessian update                 ...        0 min,  0.001 sec (  0.032%)
 rational function              ...        0 min,  0.004 sec (  0.120%)

================
 final structure:
================
 xtb: 6.7.1 (edcfbbe)
          08212605333D

 62 70  0     0  0            999 V2000
    3.7156    4.6278    6.8797 F   0  0  0  0  0  0  0  0  0  0  0  0
   -0.1258    0.2571   -0.9236 C   0  0  0  0  0  0  0  0  0  0  0  0
   -1.7808    3.7693    0.3503 H   0  0  0  0  0  0  0  0  0  0  0  0
   -1.3743   -4.0850   -3.1528 N   0  0  0  0  0  0  0  0  0  0  0  0
   -3.6244   -5.1417   -3.8013 H   0  0  0  0  0  0  0  0  0  0  0  0
    1.3859    2.7471    2.9552 C   0  0  0  0  0  0  0  0  0  0  0  0
   -2.9686   -7.1163   -4.3158 C   0  0  0  0  0  0  0  0  0  0  0  0
    1.3498   -2.8344   -0.8444 H   0  0  0  0  0  0  0  0  0  0  0  0
   -3.1385   -0.3299   -5.1988 H   0  0  0  0  0  0  0  0  0  0  0  0
    2.2579   -1.4209    0.8445 H   0  0  0  0  0  0  0  0  0  0  0  0
    0.0889    4.6336    3.0780 C   0  0  0  0  0  0  0  0  0  0  0  0
   -0.1834    1.3966   -0.1467 C   0  0  0  0  0  0  0  0  0  0  0  0
    1.9581    4.1493    4.8257 C   0  0  0  0  0  0  0  0  0  0  0  0
   -2.8242    8.4150    3.2643 N   0  0  0  0  0  0  0  0  0  0  0  0
   -0.9385   -1.1932   -2.7677 C   0  0  0  0  0  0  0  0  0  0  0  0
    3.8905    1.3203    4.7365 H   0  0  0  0  0  0  0  0  0  0  0  0
   -2.2740    7.4500    2.9800 C   0  0  0  0  0  0  0  0  0  0  0  0
    3.4426    2.5550    7.3829 F   0  0  0  0  0  0  0  0  0  0  0  0
    3.7891    3.3881    6.3792 C   0  0  0  0  0  0  0  0  0  0  0  0
   -2.0387    5.5038    1.5467 C   0  0  0  0  0  0  0  0  0  0  0  0
   -0.2117    6.3866    4.2809 H   0  0  0  0  0  0  0  0  0  0  0  0
    0.2420   -8.2152   -4.2277 H   0  0  0  0  0  0  0  0  0  0  0  0
    1.7539   -6.3297   -3.5124 H   0  0  0  0  0  0  0  0  0  0  0  0
   -0.3319    3.8721    1.9488 C   0  0  0  0  0  0  0  0  0  0  0  0
   -1.8708   -7.9855   -4.4314 C   0  0  0  0  0  0  0  0  0  0  0  0
    1.1842    3.9256    3.7226 C   0  0  0  0  0  0  0  0  0  0  0  0
   -1.4068    4.3214    1.1971 C   0  0  0  0  0  0  0  0  0  0  0  0
    1.5444    0.5335    1.3586 C   0  0  0  0  0  0  0  0  0  0  0  0
   -1.7217    1.0743   -2.6709 C   0  0  0  0  0  0  0  0  0  0  0  0
    0.5091    2.6799    1.8671 C   0  0  0  0  0  0  0  0  0  0  0  0
   -1.7343    2.0689   -2.2468 H   0  0  0  0  0  0  0  0  0  0  0  0
   -2.4787    0.9287   -3.7316 N   0  0  0  0  0  0  0  0  0  0  0  0
    2.3995    0.6503    2.4634 C   0  0  0  0  0  0  0  0  0  0  0  0
   -0.8510    2.1926   -0.4228 H   0  0  0  0  0  0  0  0  0  0  0  0
    2.3464    1.7725    3.2843 C   0  0  0  0  0  0  0  0  0  0  0  0
    1.9506   -3.9756   -2.7506 H   0  0  0  0  0  0  0  0  0  0  0  0
    0.7230   -2.0408   -1.2263 C   0  0  0  0  0  0  0  0  0  0  0  0
    1.8481    5.0275    5.4427 H   0  0  0  0  0  0  0  0  0  0  0  0
    3.0941   -0.1494    2.6755 H   0  0  0  0  0  0  0  0  0  0  0  0
    0.8800   -5.7013   -3.4027 C   0  0  0  0  0  0  0  0  0  0  0  0
    1.5758   -0.6287    0.5690 C   0  0  0  0  0  0  0  0  0  0  0  0
    0.7505   -0.8012   -0.5235 C   0  0  0  0  0  0  0  0  0  0  0  0
   -1.7417   -1.3286   -3.9069 C   0  0  0  0  0  0  0  0  0  0  0  0
    2.9378    3.1797    5.1572 C   0  0  0  0  0  0  0  0  0  0  0  0
   -0.1096   -2.2699   -2.2744 C   0  0  0  0  0  0  0  0  0  0  0  0
    0.9878   -4.4104   -2.9720 C   0  0  0  0  0  0  0  0  0  0  0  0
   -1.7752   -2.2677   -4.4328 H   0  0  0  0  0  0  0  0  0  0  0  0
   -0.3926   -6.2281   -3.7110 C   0  0  0  0  0  0  0  0  0  0  0  0
   -1.6088    6.2492    2.6454 C   0  0  0  0  0  0  0  0  0  0  0  0
    3.1351    2.0303    4.4332 C   0  0  0  0  0  0  0  0  0  0  0  0
    5.0920    3.1504    6.1401 F   0  0  0  0  0  0  0  0  0  0  0  0
   -1.5053   -5.3521   -3.5823 C   0  0  0  0  0  0  0  0  0  0  0  0
   -0.6071   -7.5518   -4.1386 C   0  0  0  0  0  0  0  0  0  0  0  0
   -0.9288    0.0599   -2.1111 C   0  0  0  0  0  0  0  0  0  0  0  0
   -0.5327    5.8111    3.4256 C   0  0  0  0  0  0  0  0  0  0  0  0
   -2.7957   -5.8256   -3.9015 C   0  0  0  0  0  0  0  0  0  0  0  0
   -2.4950   -0.2572   -4.3323 C   0  0  0  0  0  0  0  0  0  0  0  0
   -3.9561   -7.4818   -4.5565 H   0  0  0  0  0  0  0  0  0  0  0  0
   -2.8795    5.8574    0.9681 H   0  0  0  0  0  0  0  0  0  0  0  0
   -0.1863   -3.6259   -2.8402 C   0  0  0  0  0  0  0  0  0  0  0  0
    0.5936    1.5655    1.0100 C   0  0  0  0  0  0  0  0  0  0  0  0
   -2.0341   -9.0027   -4.7552 H   0  0  0  0  0  0  0  0  0  0  0  0
  1 19  1  0  0  0  0
  2 12  4  0  0  0  0
  2 42  4  0  0  0  0
  2 54  4  0  0  0  0
  3 27  1  0  0  0  0
  4 52  4  0  0  0  0
  4 60  4  0  0  0  0
  5 56  1  0  0  0  0
  6 26  4  0  0  0  0
  6 30  4  0  0  0  0
  6 35  4  0  0  0  0
  7 25  4  0  0  0  0
  7 56  4  0  0  0  0
  7 58  1  0  0  0  0
  8 37  1  0  0  0  0
  9 57  1  0  0  0  0
 10 41  1  0  0  0  0
 11 24  4  0  0  0  0
 11 26  1  0  0  0  0
 11 55  4  0  0  0  0
 12 34  1  0  0  0  0
 12 61  4  0  0  0  0
 13 26  4  0  0  0  0
 13 38  1  0  0  0  0
 13 44  4  0  0  0  0
 14 17  3  0  0  0  0
 15 43  4  0  0  0  0
 15 45  4  0  0  0  0
 15 54  4  0  0  0  0
 16 50  1  0  0  0  0
 17 49  1  0  0  0  0
 18 19  1  0  0  0  0
 19 44  1  0  0  0  0
 19 51  1  0  0  0  0
 20 27  4  0  0  0  0
 20 49  4  0  0  0  0
 20 59  1  0  0  0  0
 21 55  1  0  0  0  0
 22 53  1  0  0  0  0
 23 40  1  0  0  0  0
 24 27  4  0  0  0  0
 24 30  1  0  0  0  0
 25 53  4  0  0  0  0
 25 62  1  0  0  0  0
 28 33  4  0  0  0  0
 28 41  4  0  0  0  0
 28 61  4  0  0  0  0
 29 31  1  0  0  0  0
 29 32  4  0  0  0  0
 29 54  4  0  0  0  0
 30 61  4  0  0  0  0
 32 57  4  0  0  0  0
 33 35  4  0  0  0  0
 33 39  1  0  0  0  0
 35 50  4  0  0  0  0
 36 46  1  0  0  0  0
 37 42  4  0  0  0  0
 37 45  4  0  0  0  0
 40 46  4  0  0  0  0
 40 48  4  0  0  0  0
 41 42  4  0  0  0  0
 43 47  1  0  0  0  0
 43 57  4  0  0  0  0
 44 50  4  0  0  0  0
 45 60  1  0  0  0  0
 46 60  4  0  0  0  0
 48 52  4  0  0  0  0
 48 53  4  0  0  0  0
 49 55  4  0  0  0  0
 52 56  4  0  0  0  0
M  END
$$$$

 Bond Distances (Angstroems)
 ---------------------------
F1-C19=1.3389        C2-C12=1.3803        C2-C42=1.4312        C2-C54=1.4469        H3-C27=1.0778        N4-C52=1.3443        
N4-C60=1.3114        H5-C56=1.0791        C6-C26=1.4207        C6-C30=1.3991        C6-C35=1.4073        C7-C25=1.4050        
C7-C56=1.3666        C7-H58=1.0801        H8-C37=1.0810        H9-C57=1.0817        H10-C41=1.0811       C11-C24=1.4256       
C11-C26=1.4549       C11-C55=1.3761       C12-C2=1.3803        C12-H34=1.0750       C12-C61=1.4036       C13-C26=1.3659       
C13-H38=1.0788       C13-C44=1.4177       N14-C17=1.1467       C15-C43=1.4004       C15-C45=1.4456       C15-C54=1.4148       
H16-C50=1.0801       C17-N14=1.1467       C17-C49=1.4129       F18-C19=1.3497       C19-F1=1.3389        C19-F18=1.3497       
C19-C44=1.5037       C19-F51=1.3458       C20-C27=1.3855       C20-C49=1.3955       C20-H59=1.0802       H21-C55=1.0797       
H22-C53=1.0813       H23-C40=1.0820       C24-C11=1.4256       C24-C27=1.3865       C24-C30=1.4612       C25-C7=1.4050        
C25-C53=1.3677       C25-H62=1.0800       C26-C6=1.4207        C26-C11=1.4549       C26-C13=1.3659       C27-H3=1.0778        
C27-C20=1.3855       C27-C24=1.3865       C28-C33=1.4019       C28-C41=1.4054       C28-C61=1.4459       C29-H31=1.0814       
C29-N32=1.3113       C29-C54=1.4039       C30-C6=1.3991        C30-C24=1.4612       C30-C61=1.4084       H31-C29=1.0814       
N32-C29=1.3113       N32-C57=1.3294       C33-C28=1.4019       C33-C35=1.3914       C33-H39=1.0803       H34-C12=1.0750       
C35-C6=1.4073        C35-C33=1.3914       C35-C50=1.4172       H36-C46=1.0794       C37-H8=1.0810        C37-C42=1.4252       
C37-C45=1.3580       H38-C13=1.0788       H39-C33=1.0803       C40-H23=1.0820       C40-C46=1.3652       C40-C48=1.4114       
C41-H10=1.0811       C41-C28=1.4054       C41-C42=1.3800       C42-C2=1.4312        C42-C37=1.4252       C42-C41=1.3800       
C43-C15=1.4004       C43-H47=1.0769       C43-C57=1.3771       C44-C13=1.4177       C44-C19=1.5037       C44-C50=1.3727       
C45-C15=1.4456       C45-C37=1.3580       C45-C60=1.4713       C46-H36=1.0794       C46-C40=1.3652       C46-C60=1.4182       
H47-C43=1.0769       C48-C40=1.4114       C48-C52=1.4220       C48-C53=1.4075       C49-C17=1.4129       C49-C20=1.3955       
C49-C55=1.3995       C50-H16=1.0801       C50-C35=1.4172       C50-C44=1.3727       F51-C19=1.3458       C52-N4=1.3443        
C52-C48=1.4220       C52-C56=1.4111       C53-H22=1.0813       C53-C25=1.3677       C53-C48=1.4075       C54-C2=1.4469        
C54-C15=1.4148       C54-C29=1.4039       C55-C11=1.3761       C55-H21=1.0797       C55-C49=1.3995       C56-H5=1.0791        
C56-C7=1.3666        C56-C52=1.4111       C57-H9=1.0817        C57-N32=1.3294       C57-C43=1.3771       H58-C7=1.0801        
H59-C20=1.0802       C60-N4=1.3114        C60-C45=1.4713       C60-C46=1.4182       C61-C12=1.4036       C61-C28=1.4459       
C61-C30=1.4084       H62-C25=1.0800       
 C  H  Rav=1.0798 sigma=0.0017  Rmin=1.0750  Rmax=1.0820    18
 C  C  Rav=1.4084 sigma=0.0303  Rmin=1.3580  Rmax=1.5037    44
 N  C  Rav=1.2886 sigma=0.0720  Rmin=1.1467  Rmax=1.3443     5
 F  C  Rav=1.3448 sigma=0.0044  Rmin=1.3389  Rmax=1.3497     3

 selected bond angles (degree)
 --------------------
C42-C2-C12=118.60              C54-C2-C12=123.45              C54-C2-C42=117.94              C60-N4-C52=119.63              
C30-C6-C26=111.77              C35-C6-C26=123.03              C35-C6-C30=125.19              C56-C7-C25=120.69              
H58-C7-C25=119.13              H58-C7-C56=120.18              

 selected dihedral angles (degree)
 ---------------------------------

           -------------------------------------------------
          |                Final Singlepoint                |
           -------------------------------------------------

          ...................................................
          :                      SETUP                      :
          :.................................................:
          :  # basis functions                 194          :
          :  # atomic orbitals                 194          :
          :  # shells                          106          :
          :  # electrons                       206          :
          :  max. iterations                   250          :
          :  Hamiltonian                  GFN2-xTB          :
          :  restarted?                      false          :
          :  GBSA solvation                  false          :
          :  PC potential                    false          :
          :  electronic temp.          300.0000000     K    :
          :  accuracy                    1.0000000          :
          :  -> integral cutoff          0.2500000E+02      :
          :  -> integral neglect         0.1000000E-07      :
          :  -> SCF convergence          0.1000000E-05 Eh   :
          :  -> wf. convergence          0.1000000E-03 e    :
          :  Broyden damping             0.4000000          :
          :  net charge                          0          :
          :  unpaired electrons                  0          :
          ...................................................

 iter      E             dE          RMSdq      gap      omega  full diag
   1   -115.4443292 -0.115444E+03  0.737E-05    1.07       0.0  T
   2   -115.4443292  0.102020E-09  0.736E-05    1.07     172.6  T
   3   -115.4443292 -0.410722E-09  0.225E-05    1.07     563.7  T

   *** convergence criteria satisfied after 3 iterations ***

         #    Occupation            Energy/Eh            Energy/eV
      -------------------------------------------------------------
         1        2.0000           -0.8783669             -23.9016
       ...           ...                  ...                  ...
        97        2.0000           -0.4189431             -11.4000
        98        2.0000           -0.4122922             -11.2190
        99        2.0000           -0.4085990             -11.1185
       100        2.0000           -0.4019836             -10.9385
       101        2.0000           -0.3846627             -10.4672
       102        2.0000           -0.3796747             -10.3315
       103        2.0000           -0.3718260             -10.1179 (HOMO)
       104                         -0.3324315              -9.0459 (LUMO)
       105                         -0.2972852              -8.0895
       106                         -0.2818821              -7.6704
       107                         -0.2757358              -7.5032
       108                         -0.2731321              -7.4323
       ...                                ...                  ...
       194                          1.1685689              31.7984
      -------------------------------------------------------------
                  HL-Gap            0.0393945 Eh            1.0720 eV
             Fermi-level           -0.3521286 Eh           -9.5819 eV

 SCC (total)                   0 d,  0 h,  0 min,  0.059 sec
 SCC setup                      ...        0 min,  0.000 sec (  0.590%)
 Dispersion                     ...        0 min,  0.001 sec (  1.308%)
 classical contributions        ...        0 min,  0.000 sec (  0.296%)
 integral evaluation            ...        0 min,  0.011 sec ( 17.851%)
 iterations                     ...        0 min,  0.012 sec ( 21.069%)
 molecular gradient             ...        0 min,  0.034 sec ( 58.393%)
 printout                       ...        0 min,  0.000 sec (  0.474%)

         :::::::::::::::::::::::::::::::::::::::::::::::::::::
         ::                     SUMMARY                     ::
         :::::::::::::::::::::::::::::::::::::::::::::::::::::
         :: total energy            -113.534861692467 Eh    ::
         :: gradient norm              0.001996871624 Eh/a0 ::
         :: HOMO-LUMO gap              1.071979310215 eV    ::
         ::.................................................::
         :: SCC energy              -115.445594354570 Eh    ::
         :: -> isotropic ES            0.067700420398 Eh    ::
         :: -> anisotropic ES          0.003393468509 Eh    ::
         :: -> anisotropic XC          0.055530159768 Eh    ::
         :: -> dispersion             -0.088910747684 Eh    ::
         :: repulsion energy           1.910732662103 Eh    ::
         :: add. restraining           0.000000000000 Eh    ::
         :: total charge               0.000000000001 e     ::
         :::::::::::::::::::::::::::::::::::::::::::::::::::::

           -------------------------------------------------
          |                Property Printout                |
           -------------------------------------------------

    * Orbital Energies and Occupations

         #    Occupation            Energy/Eh            Energy/eV
      -------------------------------------------------------------
         1        2.0000           -0.8783669             -23.9016
       ...           ...                  ...                  ...
        91        2.0000           -0.4419419             -12.0259
        92        2.0000           -0.4383478             -11.9281
        93        2.0000           -0.4370909             -11.8938
        94        2.0000           -0.4311162             -11.7313
        95        2.0000           -0.4236144             -11.5271
        96        2.0000           -0.4226460             -11.5008
        97        2.0000           -0.4189431             -11.4000
        98        2.0000           -0.4122922             -11.2190
        99        2.0000           -0.4085990             -11.1185
       100        2.0000           -0.4019836             -10.9385
       101        2.0000           -0.3846627             -10.4672
       102        2.0000           -0.3796747             -10.3315
       103        2.0000           -0.3718260             -10.1179 (HOMO)
       104                         -0.3324315              -9.0459 (LUMO)
       105                         -0.2972852              -8.0895
       106                         -0.2818821              -7.6704
       107                         -0.2757358              -7.5032
       108                         -0.2731321              -7.4323
       109                         -0.2533360              -6.8936
       110                         -0.2517457              -6.8503
       111                         -0.2488516              -6.7716
       112                         -0.2263338              -6.1589
       113                         -0.2163088              -5.8861
       114                         -0.2099279              -5.7124
       ...                                ...                  ...
       194                          1.1685689              31.7984
      -------------------------------------------------------------
                  HL-Gap            0.0393945 Eh            1.0720 eV
             Fermi-level           -0.3521286 Eh           -9.5819 eV

     #   Z          covCN         q      C6AA      α(0)
     1   9 F        0.791    -0.204    11.274     3.966
     2   6 C        2.975     0.012    27.731     8.638
     3   1 H        0.926     0.041     2.437     2.441
     4   7 N        1.850    -0.243    27.206     7.731
     5   1 H        0.926     0.053     2.285     2.364
     6   6 C        3.130    -0.009    28.026     8.667
     7   6 C        2.916    -0.026    28.645     8.777
     8   1 H        0.926     0.039     2.464     2.455
     9   1 H        0.925     0.042     2.416     2.431
    10   1 H        0.926     0.041     2.437     2.441
    11   6 C        3.068     0.002    27.902     8.661
    12   6 C        2.918    -0.041    29.026     8.835
    13   6 C        2.913    -0.024    28.612     8.771
    14   7 N        0.911    -0.231    26.047     7.381
    15   6 C        2.993     0.031    27.296     8.570
    16   1 H        0.926     0.059     2.207     2.323
    17   6 C        1.912     0.112    28.342     8.598
    18   9 F        0.791    -0.212    11.357     3.981
    19   6 C        3.338     0.485    17.265     6.576
    20   6 C        2.927    -0.021    28.542     8.761
    21   1 H        0.926     0.046     2.366     2.405
    22   1 H        0.925     0.035     2.515     2.480
    23   1 H        0.925     0.035     2.517     2.481
    24   6 C        3.066     0.009    27.749     8.638
    25   6 C        2.916    -0.028    28.693     8.784
    26   6 C        3.040     0.010    27.748     8.640
    27   6 C        2.912    -0.028    28.701     8.785
    28   6 C        2.979     0.015    27.666     8.628
    29   6 C        2.914     0.058    26.706     8.474
    30   6 C        3.033    -0.003    28.072     8.691
    31   1 H        0.925     0.039     2.468     2.457
    32   7 N        1.834    -0.220    26.628     7.647
    33   6 C        2.926    -0.032    28.787     8.799
    34   1 H        0.926     0.046     2.364     2.405
    35   6 C        2.975     0.019    27.584     8.615
    36   1 H        0.926     0.033     2.541     2.493
    37   6 C        2.925    -0.036    28.901     8.816
    38   1 H        0.926     0.061     2.184     2.311
    39   1 H        0.926     0.048     2.351     2.398
    40   6 C        2.921    -0.018    28.458     8.748
    41   6 C        2.927    -0.038    28.941     8.822
    42   6 C        2.978     0.015    27.663     8.627
    43   6 C        2.913    -0.040    28.983     8.828
    44   6 C        2.974    -0.026    28.637     8.778
    45   6 C        2.970     0.004    27.920     8.667
    46   6 C        2.914    -0.048    29.184     8.859
    47   1 H        0.926     0.056     2.241     2.341
    48   6 C        2.985     0.001    27.996     8.679
    49   6 C        2.974     0.018    27.595     8.617
    50   6 C        2.921    -0.023    28.577     8.766
    51   9 F        0.791    -0.210    11.336     3.977
    52   6 C        2.965     0.091    25.972     8.359
    53   6 C        2.916    -0.034    28.849     8.808
    54   6 C        2.976    -0.005    28.146     8.702
    55   6 C        2.919    -0.021    28.537     8.760
    56   6 C        2.920    -0.038    28.945     8.823
    57   6 C        2.912     0.058    26.700     8.473
    58   1 H        0.926     0.039     2.458     2.452
    59   1 H        0.926     0.046     2.366     2.405
    60   6 C        2.954     0.099    25.803     8.332
    61   6 C        2.977     0.017    27.618     8.620
    62   1 H        0.926     0.037     2.483     2.464

 Mol. C6AA /au·bohr⁶  :      64107.567797
 Mol. C8AA /au·bohr⁸  :    1654249.397099
 Mol. α(0) /au        :        406.221740


Wiberg/Mayer (AO) data.
largest (>0.10) Wiberg bond orders for each atom

 ---------------------------------------------------------------------------
     #   Z sym  total        # sym  WBO       # sym  WBO       # sym  WBO
 ---------------------------------------------------------------------------
     1   9 F    1.077 --    19 C    0.954
     2   6 C    3.968 --    12 C    1.460    42 C    1.185    54 C    1.134
     3   1 H    0.997 --    27 C    0.959
     4   7 N    3.058 --    60 C    1.489    52 C    1.293
     5   1 H    0.997 --    56 C    0.967
     6   6 C    3.976 --    30 C    1.317    35 C    1.226    26 C    1.192
     7   6 C    3.991 --    56 C    1.559    25 C    1.320    58 H    0.970
     8   1 H    0.997 --    37 C    0.963
     9   1 H    0.998 --    57 C    0.964
    10   1 H    0.997 --    41 C    0.964
    11   6 C    3.981 --    55 C    1.447    24 C    1.261    26 C    1.080
    12   6 C    3.984 --     2 C    1.460    61 C    1.314    34 H    0.952
                            41 C    0.116
    13   6 C    3.957 --    26 C    1.517    44 C    1.275    38 H    0.965
    14   7 N    2.971 --    17 C    2.801
    15   6 C    3.979 --    43 C    1.350    54 C    1.299    45 C    1.132
    16   1 H    0.996 --    50 C    0.965
    17   6 C    3.945 --    14 N    2.801    49 C    1.097
    18   9 F    1.064 --    19 C    0.937
    19   6 C    3.821 --     1 F    0.954    44 C    0.950    51 F    0.944
                            18 F    0.937
    20   6 C    3.961 --    27 C    1.438    49 C    1.364    59 H    0.970
    21   1 H    0.997 --    55 C    0.967
    22   1 H    0.999 --    53 C    0.968
    23   1 H    0.998 --    40 C    0.967
    24   6 C    3.963 --    27 C    1.404    11 C    1.261    30 C    1.096
    25   6 C    3.984 --    53 C    1.553     7 C    1.320    62 H    0.971
    26   6 C    3.979 --    13 C    1.517     6 C    1.192    11 C    1.080
                            50 C    0.104
    27   6 C    3.971 --    20 C    1.438    24 C    1.404     3 H    0.959
    28   6 C    3.985 --    33 C    1.350    41 C    1.298    61 C    1.167
    29   6 C    3.971 --    32 N    1.491    54 C    1.333    31 H    0.956
                            43 C    0.110
    30   6 C    3.974 --     6 C    1.317    61 C    1.290    24 C    1.096
                            33 C    0.118
    31   1 H    0.998 --    29 C    0.956
    32   7 N    3.059 --    29 C    1.491    57 C    1.383
    33   6 C    3.935 --    35 C    1.360    28 C    1.350    39 H    0.965
                            30 C    0.118
    34   1 H    0.997 --    12 C    0.952
    35   6 C    3.983 --    33 C    1.360    50 C    1.238     6 C    1.226
    36   1 H    0.998 --    46 C    0.967
    37   6 C    3.979 --    45 C    1.610    42 C    1.190     8 H    0.963
    38   1 H    0.995 --    13 C    0.965
    39   1 H    0.996 --    33 C    0.965
    40   6 C    3.989 --    46 C    1.573    48 C    1.275    23 H    0.967
    41   6 C    3.954 --    42 C    1.441    28 C    1.298    10 H    0.964
                            12 C    0.116
    42   6 C    3.980 --    41 C    1.441    37 C    1.190     2 C    1.185
    43   6 C    3.977 --    57 C    1.472    15 C    1.350    47 H    0.960
                            29 C    0.110
    44   6 C    3.956 --    50 C    1.547    13 C    1.275    19 C    0.950
    45   6 C    3.967 --    37 C    1.610    15 C    1.132    60 C    1.045
    46   6 C    3.989 --    40 C    1.573    60 C    1.256    36 H    0.967
    47   1 H    0.996 --    43 C    0.960
    48   6 C    3.986 --    53 C    1.284    40 C    1.275    52 C    1.233
    49   6 C    3.964 --    20 C    1.364    55 C    1.335    17 C    1.097
    50   6 C    3.955 --    44 C    1.547    35 C    1.238    16 H    0.965
                            26 C    0.104
    51   9 F    1.068 --    19 C    0.944
    52   6 C    3.980 --     4 N    1.293    56 C    1.266    48 C    1.233
    53   6 C    3.991 --    25 C    1.553    48 C    1.284    22 H    0.968
                            56 C    0.117
    54   6 C    3.986 --    29 C    1.333    15 C    1.299     2 C    1.134
    55   6 C    3.975 --    11 C    1.447    49 C    1.335    21 H    0.967
    56   6 C    3.984 --     7 C    1.559    52 C    1.266     5 H    0.967
                            53 C    0.117
    57   6 C    3.969 --    43 C    1.472    32 N    1.383     9 H    0.964
    58   1 H    0.998 --     7 C    0.970
    59   1 H    0.997 --    20 C    0.970
    60   6 C    3.977 --     4 N    1.489    46 C    1.256    45 C    1.045
    61   6 C    3.974 --    12 C    1.314    30 C    1.290    28 C    1.167
    62   1 H    0.998 --    25 C    0.971
 ---------------------------------------------------------------------------

Topologies differ in bond orders
Writing corrected topology to xtbtopo.sdf

molecular dipole:
                 x           y           z       tot (Debye)
 q only:       -0.021      -2.529      -2.054
   full:        0.827      -3.504      -1.942      10.397
molecular quadrupole (traceless):
                xx          xy          yy          xz          yz          zz
 q only:       10.523       5.061       1.691     -16.142     -17.633     -12.214
  q+dip:       10.305       5.078       2.084      -9.506      -9.728     -12.389
   full:       11.025      11.499      -2.841     -17.093     -16.057      -8.184

           -------------------------------------------------
          |                Geometry Summary                 |
           -------------------------------------------------

      molecular mass/u    :      573.5662168
   center of mass at/Å    :        0.2334005       0.5379446       0.5707276
  moments of inertia/u·Å² :        0.3844603E+04   0.1690267E+05   0.2014595E+05
rotational constants/cm⁻¹ :        0.4384752E-02   0.9973353E-03   0.8367751E-03

 * 62 selected distances

     #   Z          #   Z                                           value/Å
     2   6 C       12   6 C                                       1.3803140
    14   7 N       17   6 C                                       1.1466501
     1   9 F       19   6 C                                       1.3389481
    18   9 F       19   6 C                                       1.3496678
    11   6 C       24   6 C                                       1.4255850
     7   6 C       25   6 C                                       1.4049655
     6   6 C       26   6 C                                       1.4207356
    13   6 C       26   6 C                                       1.3658828
     3   1 H       27   6 C                                       1.0778247
    20   6 C       27   6 C                                       1.3854997
    24   6 C       27   6 C                                       1.3865096
     6   6 C       30   6 C                                       1.3991010
    29   6 C       31   1 H                                       1.0813701
    29   6 C       32   7 N                                       1.3112955
    28   6 C       33   6 C                                       1.4019164
    12   6 C       34   1 H                                       1.0749619 (min)
     6   6 C       35   6 C                                       1.4073249
    33   6 C       35   6 C                                       1.3914233
     8   1 H       37   6 C                                       1.0810442
    13   6 C       38   1 H                                       1.0788403
    33   6 C       39   1 H                                       1.0802740
    23   1 H       40   6 C                                       1.0819602
    10   1 H       41   6 C                                       1.0810871
    28   6 C       41   6 C                                       1.4054490
     2   6 C       42   6 C                                       1.4311864 (max)
    37   6 C       42   6 C                                       1.4251921
    41   6 C       42   6 C                                       1.3800171
    15   6 C       43   6 C                                       1.4004144
    13   6 C       44   6 C                                       1.4177024
    37   6 C       45   6 C                                       1.3579511
    36   1 H       46   6 C                                       1.0794052
    40   6 C       46   6 C                                       1.3651543
    43   6 C       47   1 H                                       1.0768718
    40   6 C       48   6 C                                       1.4113945
    20   6 C       49   6 C                                       1.3955220
    16   1 H       50   6 C                                       1.0801319
    35   6 C       50   6 C                                       1.4172259
    44   6 C       50   6 C                                       1.3726895
    19   6 C       51   9 F                                       1.3457689
     4   7 N       52   6 C                                       1.3442973
    48   6 C       52   6 C                                       1.4220254
    22   1 H       53   6 C                                       1.0812539
    25   6 C       53   6 C                                       1.3677119
    48   6 C       53   6 C                                       1.4075239
    15   6 C       54   6 C                                       1.4147721
    29   6 C       54   6 C                                       1.4038866
    11   6 C       55   6 C                                       1.3760804
    21   1 H       55   6 C                                       1.0796602
    49   6 C       55   6 C                                       1.3995236
     5   1 H       56   6 C                                       1.0791305
     7   6 C       56   6 C                                       1.3665885
    52   6 C       56   6 C                                       1.4110676
     9   1 H       57   6 C                                       1.0816907
    32   7 N       57   6 C                                       1.3294265
Note: The following floating-point exceptions are signalling: IEEE_UNDERFLOW_FLAG IEEE_DENORMAL
normal termination of xtb
    43   6 C       57   6 C                                       1.3770748
     7   6 C       58   1 H                                       1.0801497
    20   6 C       59   1 H                                       1.0802044
     4   7 N       60   6 C                                       1.3114306
    46   6 C       60   6 C                                       1.4181983
    12   6 C       61   6 C                                       1.4036178
    30   6 C       61   6 C                                       1.4084366
    25   6 C       62   1 H                                       1.0799989

 * 4 distinct bonds (by element types)

   Z      Z             #   av. dist./Å        max./Å        min./Å
   1 H    6 C          18     1.0797700     1.0819602     1.0749619
   6 C    6 C          36     1.3979351     1.4311864     1.3579511
   6 C    7 N           5     1.2886200     1.3442973     1.1466501
   6 C    9 F           3     1.3447949     1.3496678     1.3389481


optimized geometry written to: xtbopt.sdf


           -------------------------------------------------
          | TOTAL ENERGY             -113.534861692467 Eh   |
          | GRADIENT NORM               0.001996871624 Eh/α |
          | HOMO-LUMO GAP               1.071979310215 eV   |
           -------------------------------------------------

------------------------------------------------------------------------
 * finished run on 2026/08/21 at 05:33:52.559     
------------------------------------------------------------------------
 total:
 * wall-time:     0 d,  0 h,  0 min,  3.593 sec
 *  cpu-time:     0 d,  0 h,  0 min,  3.567 sec
 * ratio c/w:     0.993 speedup
 SCF:
 * wall-time:     0 d,  0 h,  0 min,  0.107 sec
 *  cpu-time:     0 d,  0 h,  0 min,  0.105 sec
 * ratio c/w:     0.982 speedup
 ANC optimizer:
 * wall-time:     0 d,  0 h,  0 min,  3.457 sec
 *  cpu-time:     0 d,  0 h,  0 min,  3.443 sec
 * ratio c/w:     0.996 speedup

