      -----------------------------------------------------------      
     |                   =====================                   |     
     |                           x T B                           |     
     |                   =====================                   |     
     |                         S. Grimme                         |     
     |          Mulliken Center for Theoretical Chemistry        |     
     |                    University of Bonn                     |     
      -----------------------------------------------------------      

   * xtb version 6.7.1 (edcfbbe) compiled by 'conda@5dfe00f5fb80' on 2026-06-10

   xtb is free software: you can redistribute it and/or modify it under
   the terms of the GNU Lesser General Public License as published by
   the Free Software Foundation, either version 3 of the License, or
   (at your option) any later version.
   
   xtb is distributed in the hope that it will be useful,
   but WITHOUT ANY WARRANTY; without even the implied warranty of
   MERCHANTABILITY or FITNESS FOR A PARTICULAR PURPOSE.  See the
   GNU Lesser General Public License for more details.
   
   Cite this work as:
   * C. Bannwarth, E. Caldeweyher, S. Ehlert, A. Hansen, P. Pracht,
     J. Seibert, S. Spicher, S. Grimme, WIREs Comput. Mol. Sci., 2020, 11,
     e01493. DOI: 10.1002/wcms.1493
   
   for GFN2-xTB:
   * C. Bannwarth, S. Ehlert and S. Grimme., J. Chem. Theory Comput., 2019,
     15, 1652-1671. DOI: 10.1021/acs.jctc.8b01176
   for GFN1-xTB:
   * S. Grimme, C. Bannwarth, P. Shushkov, J. Chem. Theory Comput., 2017,
     13, 1989-2009. DOI: 10.1021/acs.jctc.7b00118
   for GFN0-xTB:
   * P. Pracht, E. Caldeweyher, S. Ehlert, S. Grimme, ChemRxiv, 2019, preprint.
     DOI: 10.26434/chemrxiv.8326202.v1
   for GFN-FF:
   * S. Spicher and S. Grimme, Angew. Chem. Int. Ed., 2020, 59, 15665-15673.
     DOI: 10.1002/anie.202004239
   
   for ALPB and GBSA implicit solvation:
   * S. Ehlert, M. Stahn, S. Spicher, S. Grimme, J. Chem. Theory Comput.,
     2021, 17, 4250-4261. DOI: 10.1021/acs.jctc.1c00471
   
   for ddCOSMO and CPCM-X implicit solvation:
   * M. Stahn, S. Ehlert, S. Grimme, J. Phys. Chem. A,
     2023, XX, XXXX-XXXX. DOI: 10.1021/acs.jpca.3c04382
   
   for DFT-D4:
   * E. Caldeweyher, C. Bannwarth and S. Grimme, J. Chem. Phys., 2017,
     147, 034112. DOI: 10.1063/1.4993215
   * E. Caldeweyher, S. Ehlert, A. Hansen, H. Neugebauer, S. Spicher,
     C. Bannwarth and S. Grimme, J. Chem. Phys., 2019, 150, 154122.
     DOI: 10.1063/1.5090222
   * E. Caldeweyher, J.-M. Mewes, S. Ehlert and S. Grimme, Phys. Chem. Chem. Phys.
     2020, 22, 8499-8512. DOI: 10.1039/D0CP00502A
   
   for sTDA-xTB:
   * S. Grimme and C. Bannwarth, J. Chem. Phys., 2016, 145, 054103.
     DOI: 10.1063/1.4959605
   
   in the mass-spec context:
   * V. Asgeirsson, C. Bauer and S. Grimme, Chem. Sci., 2017, 8, 4879.
     DOI: 10.1039/c7sc00601b
   * J. Koopman and S. Grimme, ACS Omega 2019, 4, 12, 15120-15133.
     DOI: 10.1021/acsomega.9b02011
   
   for metadynamics refer to:
   * S. Grimme, J. Chem. Theory Comput., 2019, 155, 2847-2862
     DOI: 10.1021/acs.jctc.9b00143
   
   for SPH calculations refer to:
   * S. Spicher and S. Grimme, J. Chem. Theory Comput., 2021, 17, 1701-1714
     DOI: 10.1021/acs.jctc.0c01306
   
   for ONIOM refer to:
   * C. Plett, A. Katbashev, S. Ehlert, S. Grimme, M. Bursch,
     Phys. Chem. Chem. Phys., 2023, 25, 17860-17868. DOI: 10.1039/D3CP02178E
   
   for DIPRO refer to:
   * J. Kohn, N. Gildemeister, S. Grimme, D. Fazzi, A. Hansen,
     J. Chem. Phys., 2023, just accepted.
   
   for PTB refer to:
   * S. Grimme, M. Mueller, A. Hansen, J. Chem. Phys., 2023, 158, 124111.
     DOI: 10.1063/5.0137838
   
   with help from (in alphabetical order)
   P. Atkinson, C. Bannwarth, F. Bohle, G. Brandenburg, E. Caldeweyher
   M. Checinski, S. Dohm, S. Ehlert, S. Ehrlich, I. Gerasimov, C. Hölzer
   A. Katbashev, J. Kohn, J. Koopman, C. Lavigne, S. Lehtola, F. März, M. Müller,
   F. Musil, H. Neugebauer, J. Pisarek, C. Plett, P. Pracht, F. Pultar,
   J. Seibert, P. Shushkov, S. Spicher, M. Stahn, M. Steiner, T. Strunk,
   J. Stückrath, T. Rose, and J. Unsleber
   
 * started run on 2026/08/20 at 06:25:58.400     
   ID    Z sym.   atoms
    1    6 C      1, 5, 7, 10, 11, 16, 20, 22-26, 28, 29, 31-34, 36, 37,
                  39-41, 44, 46, 49-54, 57, 58, 61, 64, 67, 72, 73, 75, 76
    2    1 H      2-4, 6, 13, 15, 17, 18, 27, 35, 38, 43, 47, 55, 56, 59, 62,
                  65, 66, 68-71
    3    7 N      8, 9, 12, 14, 21, 42, 48, 60, 63, 74
    4    8 O      19, 30, 45

           -------------------------------------------------
          |                Calculation Setup                |
           -------------------------------------------------

          program call               : xtb 00021.sdf --opt loose --cycles 500
          coordinate file            : 00021.sdf
          omp threads                :                     1


           -------------------------------------------------
          |                 G F N 2 - x T B                 |
           -------------------------------------------------

        Reference                      10.1021/acs.jctc.8b01176
      * Hamiltonian:
        H0-scaling (s, p, d)           1.850000    2.230000    2.230000
        zeta-weighting                 0.500000
      * Dispersion:
        s8                             2.700000
        a1                             0.520000
        a2                             5.000000
        s9                             5.000000
      * Repulsion:
        kExp                           1.500000    1.000000
        rExp                           1.000000
      * Coulomb:
        alpha                          2.000000
        third order                    shell-resolved
        anisotropic                    true
        a3                             3.000000
        a5                             4.000000
        cn-shift                       1.200000
        cn-exp                         4.000000
        max-rad                        5.000000


          ...................................................
          :                      SETUP                      :
          :.................................................:
          :  # basis functions                 235          :
          :  # atomic orbitals                 235          :
          :  # shells                          129          :
          :  # electrons                       251          :
          :  max. iterations                   250          :
          :  Hamiltonian                  GFN2-xTB          :
          :  restarted?                      false          :
          :  GBSA solvation                  false          :
          :  PC potential                    false          :
          :  electronic temp.          300.0000000     K    :
          :  accuracy                    1.0000000          :
          :  -> integral cutoff          0.2500000E+02      :
          :  -> integral neglect         0.1000000E-07      :
          :  -> SCF convergence          0.1000000E-05 Eh   :
          :  -> wf. convergence          0.1000000E-03 e    :
          :  Broyden damping             0.4000000          :
          :  net charge                          0          :
          :  unpaired electrons                  0          :
          ...................................................

 iter      E             dE          RMSdq      gap      omega  full diag
   1   -139.6466984 -0.139647E+03  0.491E+00    0.52       0.0  T
   2   -139.3737784  0.272920E+00  0.386E+00    0.41       1.0  T
   3   -139.0070796  0.366699E+00  0.289E+00    0.21       1.0  T
   4   -134.7496730  0.425741E+01  0.400E+00    0.22       1.0  T
   5   -138.9891230 -0.423945E+01  0.207E+00    0.67       1.0  T
   6   -139.9066138 -0.917491E+00  0.115E+00    0.72       1.0  T
   7   -139.9693799 -0.627661E-01  0.664E-01    0.23       1.0  T
   8   -139.9429441  0.264358E-01  0.601E-01    0.05       1.0  T
   9   -139.9492908 -0.634675E-02  0.525E-01    0.23       1.0  T
  10   -139.9639395 -0.146487E-01  0.291E-01    0.07       1.0  T
  11   -139.9730840 -0.914446E-02  0.178E-01    0.18       1.0  T
  12   -139.9753460 -0.226204E-02  0.118E-01    0.20       1.0  T
  13   -139.9758621 -0.516039E-03  0.847E-02    0.22       1.0  T
  14   -139.9764392 -0.577079E-03  0.357E-02    0.25       1.0  T
  15   -139.9765567 -0.117567E-03  0.145E-02    0.28       1.0  T
  16   -139.9765795 -0.227773E-04  0.109E-02    0.29       1.1  T
  17   -139.9765905 -0.110065E-04  0.780E-03    0.31       1.5  T
  18   -139.9765970 -0.644357E-05  0.487E-03    0.32       2.4  T
  19   -139.9765991 -0.218556E-05  0.312E-03    0.33       3.7  T
  20   -139.9766001 -0.913265E-06  0.177E-03    0.33       6.5  T
  21   -139.9766003 -0.243481E-06  0.876E-04    0.33      13.1  T
  22   -139.9766004 -0.692252E-07  0.510E-04    0.33      22.5  T

   *** convergence criteria satisfied after 22 iterations ***

         #    Occupation            Energy/Eh            Energy/eV
      -------------------------------------------------------------
         1        2.0000           -0.7339093             -19.9707
       ...           ...                  ...                  ...
       120        2.0000           -0.3760847             -10.2338
       121        2.0000           -0.3722763             -10.1302
       122        2.0000           -0.3636855              -9.8964
       123        2.0000           -0.3532770              -9.6132
       124        1.9998           -0.3516630              -9.5692
       125        1.9976           -0.3494706              -9.5096
       126        1.0011           -0.3381207              -9.2007 (HOMO)
       127        0.0016           -0.3258977              -8.8681 (LUMO)
       128                         -0.3077986              -8.3756
       129                         -0.3011152              -8.1938
       130                         -0.2820924              -7.6761
       131                         -0.2769016              -7.5349
       ...                                ...                  ...
       235                          0.7200075              19.5924
      -------------------------------------------------------------
                  HL-Gap            0.0122229 Eh            0.3326 eV
             Fermi-level           -0.3378759 Eh           -9.1941 eV

 SCC (total)                   0 d,  0 h,  0 min,  0.206 sec
 SCC setup                      ...        0 min,  0.001 sec (  0.325%)
 Dispersion                     ...        0 min,  0.002 sec (  0.868%)
 classical contributions        ...        0 min,  0.000 sec (  0.112%)
 integral evaluation            ...        0 min,  0.015 sec (  7.200%)
 iterations                     ...        0 min,  0.137 sec ( 66.364%)
 molecular gradient             ...        0 min,  0.049 sec ( 24.011%)
 printout                       ...        0 min,  0.002 sec (  1.114%)

         :::::::::::::::::::::::::::::::::::::::::::::::::::::
         ::                     SUMMARY                     ::
         :::::::::::::::::::::::::::::::::::::::::::::::::::::
         :: total energy            -138.287244483274 Eh    ::
         :: gradient norm              0.338344618927 Eh/a0 ::
         :: HOMO-LUMO gap              0.332602798479 eV    ::
         ::.................................................::
         :: SCC energy              -139.977434532046 Eh    ::
         :: -> isotropic ES            0.099575008728 Eh    ::
         :: -> anisotropic ES          0.019872164404 Eh    ::
         :: -> anisotropic XC          0.120247901365 Eh    ::
         :: -> dispersion             -0.097571691142 Eh    ::
         :: repulsion energy           1.690190048772 Eh    ::
         :: add. restraining           0.000000000000 Eh    ::
         :: total charge              -0.000000000005 e     ::
         :::::::::::::::::::::::::::::::::::::::::::::::::::::

      ----------------------------------------------------------- 
     |                   =====================                   |
     |                        A N C O P T                        |
     |                   =====================                   |
     |               Approximate Normal Coordinate               |
     |                Rational Function Optimizer                |
      ----------------------------------------------------------- 
      ----------------------------------------------------------- 
     |                   =====================                   |
     |                        A N C O P T                        |
     |                   =====================                   |
     |               Approximate Normal Coordinate               |
     |                Rational Function Optimizer                |
      ----------------------------------------------------------- 

          ...................................................
          :                      SETUP                      :
          :.................................................:
          :   optimization level             loose          :
          :   max. optcycles                   500          :
          :   ANC micro-cycles                  20          :
          :   degrees of freedom               222          :
          :.................................................:
          :   RF solver                   davidson          :
          :   write xtbopt.log                true          :
          :   linear?                        false          :
          :   energy convergence         0.5000000E-04 Eh   :
          :   grad. convergence          0.4000000E-02 Eh/α :
          :   maxmium RF displ.          1.0000000          :
          :   Hlow (freq-cutoff)         0.1000000E-01      :
          :   Hmax (freq-cutoff)         5.0000000          :
          :   S6 in model hess.         20.0000000          :
          ...................................................

generating ANC from exact Hessian ...
Using Lindh-Hessian (1995)
 Shifting diagonal of input Hessian by    9.9633237517430043E-003
 Lowest  eigenvalues of input Hessian
    0.000000    0.000000    0.000000    0.000000    0.000000    0.000000
    0.010000    0.010034    0.010049    0.010095    0.010187    0.010306
    0.010435    0.010468    0.010563    0.010712    0.010768    0.011088
 Highest eigenvalues
    1.991837    2.012858    2.029915    2.124973    2.179876    2.376862


........................................................................
.............................. CYCLE    1 ..............................
........................................................................

 iter      E             dE          RMSdq      gap      omega  full diag
   1   -139.9766004 -0.139977E+03  0.272E-04    0.33       0.0  T
   2   -139.9766004 -0.763100E-08  0.270E-04    0.33      42.4  T
   3   -139.9766004 -0.532580E-08  0.121E-04    0.33      95.2  T
     SCC iter.                  ...        0 min,  0.022 sec
     gradient                   ...        0 min,  0.050 sec
 * total energy  :  -138.2872445 Eh     change       -0.4620446E-07 Eh
   gradient norm :     0.3383492 Eh/α   predicted     0.0000000E+00 (-100.00%)
   displ. norm   :     0.6279762 α      lambda       -0.1498413E+00
   maximum displ.:     0.1856991 α      in ANC's #24, #49, #127, ...

........................................................................
.............................. CYCLE    2 ..............................
........................................................................

 iter      E             dE          RMSdq      gap      omega  full diag
   1   -140.1728629 -0.140173E+03  0.346E-01    0.42       0.0  T
   2   -140.1713697  0.149326E-02  0.252E-01    0.30       1.0  T
   3   -140.1599810  0.113887E-01  0.343E-01    0.46       1.0  T
   4   -140.1732457 -0.132647E-01  0.152E-01    0.34       1.0  T
   5   -140.1751488 -0.190307E-02  0.660E-02    0.37       1.0  T
   6   -140.1755941 -0.445321E-03  0.323E-02    0.37       1.0  T
   7   -140.1757001 -0.105995E-03  0.153E-02    0.38       1.0  T
   8   -140.1757155 -0.154077E-04  0.477E-03    0.38       2.4  T
   9   -140.1757159 -0.413420E-06  0.278E-03    0.38       4.1  T
  10   -140.1757167 -0.786938E-06  0.922E-04    0.38      12.4  T
  11   -140.1757168 -0.495149E-07  0.488E-04    0.38      23.5  T
     SCC iter.                  ...        0 min,  0.074 sec
     gradient                   ...        0 min,  0.050 sec
 * total energy  :  -138.4109188 Eh     change       -0.1236742E+00 Eh
   gradient norm :     0.1990078 Eh/α   predicted    -0.1045595E+00 ( -15.46%)
   displ. norm   :     0.7313612 α      lambda       -0.1110503E+00
   maximum displ.:     0.2719682 α      in ANC's #24, #49, #34, ...

........................................................................
.............................. CYCLE    3 ..............................
........................................................................

 iter      E             dE          RMSdq      gap      omega  full diag
   1   -140.3553465 -0.140355E+03  0.392E-01    0.48       0.0  T
   2   -140.3506430  0.470348E-02  0.321E-01    0.31       1.0  T
   3   -140.3506306  0.123820E-04  0.296E-01    0.48       1.0  T
   4   -140.3583885 -0.775794E-02  0.146E-01    0.40       1.0  T
   5   -140.3604147 -0.202615E-02  0.521E-02    0.41       1.0  T
   6   -140.3606329 -0.218187E-03  0.192E-02    0.42       1.0  T
   7   -140.3606503 -0.174674E-04  0.117E-02    0.41       1.0  T
   8   -140.3606586 -0.829480E-05  0.401E-03    0.41       2.9  T
   9   -140.3606593 -0.697858E-06  0.202E-03    0.41       5.7  T
  10   -140.3606596 -0.282354E-06  0.817E-04    0.41      14.0  T
  11   -140.3606596 -0.180906E-07  0.422E-04    0.41      27.2  T
     SCC iter.                  ...        0 min,  0.069 sec
     gradient                   ...        0 min,  0.050 sec
 * total energy  :  -138.4946314 Eh     change       -0.8371265E-01 Eh
   gradient norm :     0.0947261 Eh/α   predicted    -0.8522496E-01 (   1.81%)
   displ. norm   :     0.7926537 α      lambda       -0.6017163E-01
   maximum displ.:     0.4048000 α      in ANC's #24, #34, #36, ...

........................................................................
.............................. CYCLE    4 ..............................
........................................................................

 iter      E             dE          RMSdq      gap      omega  full diag
   1   -140.4753335 -0.140475E+03  0.278E-01    0.47       0.0  T
   2   -140.4747189  0.614537E-03  0.182E-01    0.39       1.0  T
   3   -140.4658366  0.888231E-02  0.278E-01    0.47       1.0  T
   4   -140.4751561 -0.931949E-02  0.980E-02    0.41       1.0  T
   5   -140.4761659 -0.100981E-02  0.353E-02    0.42       1.0  T
   6   -140.4762666 -0.100648E-03  0.160E-02    0.42       1.0  T
   7   -140.4762944 -0.278286E-04  0.755E-03    0.42       1.5  T
   8   -140.4762974 -0.296248E-05  0.269E-03    0.42       4.3  T
   9   -140.4762976 -0.215696E-06  0.121E-03    0.42       9.5  T
  10   -140.4762977 -0.121869E-06  0.485E-04    0.42      23.6  T
  11   -140.4762977 -0.956675E-08  0.233E-04    0.42      49.3  T
     SCC iter.                  ...        0 min,  0.069 sec
     gradient                   ...        0 min,  0.050 sec
 * total energy  :  -138.5454519 Eh     change       -0.5082045E-01 Eh
   gradient norm :     0.0750384 Eh/α   predicted    -0.4898893E-01 (  -3.60%)
   displ. norm   :     0.8261746 α      lambda       -0.4532662E-01
   maximum displ.:     0.4779387 α      in ANC's #24, #36, #34, ...

........................................................................
.............................. CYCLE    5 ..............................
........................................................................

 iter      E             dE          RMSdq      gap      omega  full diag
   1   -140.5595495 -0.140560E+03  0.235E-01    0.42       0.0  T
   2   -140.5596827 -0.133236E-03  0.143E-01    0.38       1.0  T
   3   -140.5583398  0.134285E-02  0.117E-01    0.42       1.0  T
   4   -140.5591641 -0.824223E-03  0.700E-02    0.38       1.0  T
   5   -140.5598647 -0.700646E-03  0.125E-02    0.40       1.0  T
   6   -140.5598743 -0.957047E-05  0.543E-03    0.40       2.1  T
   7   -140.5598755 -0.125939E-05  0.300E-03    0.40       3.8  T
   8   -140.5598759 -0.393925E-06  0.146E-03    0.40       7.8  T
   9   -140.5598761 -0.151198E-06  0.534E-04    0.40      21.5  T
  10   -140.5598761 -0.151445E-07  0.277E-04    0.40      41.3  T
     SCC iter.                  ...        0 min,  0.062 sec
     gradient                   ...        0 min,  0.050 sec
 * total energy  :  -138.5841071 Eh     change       -0.3865528E-01 Eh
   gradient norm :     0.0495764 Eh/α   predicted    -0.3813250E-01 (  -1.35%)
   displ. norm   :     0.8410642 α      lambda       -0.3292169E-01
   maximum displ.:     0.5291744 α      in ANC's #24, #36, #22, ...

........................................................................
.............................. CYCLE    6 ..............................
........................................................................

 iter      E             dE          RMSdq      gap      omega  full diag
   1   -140.6256178 -0.140626E+03  0.198E-01    0.38       0.0  T
   2   -140.6257050 -0.871759E-04  0.120E-01    0.37       1.0  T
   3   -140.6254124  0.292580E-03  0.645E-02    0.37       1.0  T
   4   -140.6257488 -0.336383E-03  0.170E-02    0.38       1.0  T
   5   -140.6257704 -0.215673E-04  0.731E-03    0.37       1.6  T
   6   -140.6257729 -0.248960E-05  0.479E-03    0.37       2.4  T
   7   -140.6257748 -0.194230E-05  0.248E-03    0.37       4.6  T
   8   -140.6257754 -0.609894E-06  0.935E-04    0.37      12.3  T
   9   -140.6257755 -0.599431E-07  0.337E-04    0.37      34.1  T
     SCC iter.                  ...        0 min,  0.057 sec
     gradient                   ...        0 min,  0.050 sec
 * total energy  :  -138.6126883 Eh     change       -0.2858120E-01 Eh
   gradient norm :     0.0372006 Eh/α   predicted    -0.2810509E-01 (  -1.67%)
   displ. norm   :     0.8529034 α      lambda       -0.2532075E-01
   maximum displ.:     0.5510959 α      in ANC's #24, #18, #22, ...

........................................................................
.............................. CYCLE    7 ..............................
........................................................................

 iter      E             dE          RMSdq      gap      omega  full diag
   1   -140.6808655 -0.140681E+03  0.182E-01    0.36       0.0  T
   2   -140.6809015 -0.360057E-04  0.111E-01    0.36       1.0  T
   3   -140.6804190  0.482547E-03  0.675E-02    0.35       1.0  T
   4   -140.6809273 -0.508280E-03  0.205E-02    0.37       1.0  T
   5   -140.6809642 -0.369597E-04  0.840E-03    0.36       1.4  T
   6   -140.6809697 -0.547825E-05  0.453E-03    0.37       2.5  T
   7   -140.6809720 -0.231149E-05  0.144E-03    0.37       8.0  T
   8   -140.6809721 -0.740541E-07  0.590E-04    0.37      19.4  T
   9   -140.6809721 -0.185369E-07  0.228E-04    0.37      50.3  T
     SCC iter.                  ...        0 min,  0.056 sec
     gradient                   ...        0 min,  0.050 sec
 * total energy  :  -138.6349974 Eh     change       -0.2230908E-01 Eh
   gradient norm :     0.0312626 Eh/α   predicted    -0.2187012E-01 (  -1.97%)
   displ. norm   :     0.8577909 α      lambda       -0.1998184E-01
   maximum displ.:     0.5503937 α      in ANC's #24, #18, #16, ...

........................................................................
.............................. CYCLE    8 ..............................
........................................................................

 iter      E             dE          RMSdq      gap      omega  full diag
   1   -140.7267039 -0.140727E+03  0.178E-01    0.37       0.0  T
   2   -140.7267253 -0.214493E-04  0.108E-01    0.37       1.0  T
   3   -140.7261234  0.601928E-03  0.760E-02    0.35       1.0  T
   4   -140.7267445 -0.621154E-03  0.230E-02    0.38       1.0  T
   5   -140.7268026 -0.581012E-04  0.788E-03    0.37       1.5  T
   6   -140.7268081 -0.547606E-05  0.333E-03    0.37       3.4  T
   7   -140.7268090 -0.852632E-06  0.132E-03    0.37       8.7  T
   8   -140.7268090 -0.753567E-07  0.512E-04    0.37      22.4  T
   9   -140.7268090 -0.158254E-07  0.187E-04    0.37      61.3  T
     SCC iter.                  ...        0 min,  0.054 sec
     gradient                   ...        0 min,  0.050 sec
 * total energy  :  -138.6525983 Eh     change       -0.1760084E-01 Eh
   gradient norm :     0.0257191 Eh/α   predicted    -0.1734230E-01 (  -1.47%)
   displ. norm   :     0.8566977 α      lambda       -0.1574047E-01
   maximum displ.:     0.5277799 α      in ANC's #24, #18, #16, ...

........................................................................
.............................. CYCLE    9 ..............................
........................................................................

 iter      E             dE          RMSdq      gap      omega  full diag
   1   -140.7635416 -0.140764E+03  0.184E-01    0.39       0.0  T
   2   -140.7635496 -0.807775E-05  0.110E-01    0.39       1.0  T
   3   -140.7627770  0.772606E-03  0.852E-02    0.36       1.0  T
   4   -140.7635980 -0.820977E-03  0.204E-02    0.39       1.0  T
   5   -140.7636415 -0.434682E-04  0.712E-03    0.38       1.6  T
   6   -140.7636456 -0.416031E-05  0.297E-03    0.38       3.9  T
   7   -140.7636463 -0.603464E-06  0.130E-03    0.38       8.8  T
   8   -140.7636463 -0.855656E-07  0.476E-04    0.38      24.1  T
   9   -140.7636464 -0.149052E-07  0.170E-04    0.38      67.4  T
     SCC iter.                  ...        0 min,  0.057 sec
     gradient                   ...        0 min,  0.050 sec
 * total energy  :  -138.6662947 Eh     change       -0.1369642E-01 Eh
   gradient norm :     0.0215029 Eh/α   predicted    -0.1364647E-01 (  -0.36%)
   displ. norm   :     0.8493368 α      lambda       -0.1224025E-01
   maximum displ.:     0.4747363 α      in ANC's #24, #18, #19, ...

........................................................................
.............................. CYCLE   10 ..............................
........................................................................

 iter      E             dE          RMSdq      gap      omega  full diag
   1   -140.7911686 -0.140791E+03  0.188E-01    0.41       0.0  T
   2   -140.7911424  0.261909E-04  0.114E-01    0.40       1.0  T
   3   -140.7902605  0.881884E-03  0.102E-01    0.37       1.0  T
   4   -140.7912594 -0.998839E-03  0.253E-02    0.40       1.0  T
   5   -140.7913309 -0.715415E-04  0.747E-03    0.39       1.5  T
   6   -140.7913360 -0.511496E-05  0.282E-03    0.39       4.1  T
   7   -140.7913363 -0.321115E-06  0.131E-03    0.39       8.7  T
   8   -140.7913364 -0.806134E-07  0.502E-04    0.39      22.9  T
   9   -140.7913364 -0.164580E-07  0.183E-04    0.39      62.8  T
     SCC iter.                  ...        0 min,  0.057 sec
     gradient                   ...        0 min,  0.050 sec
 * total energy  :  -138.6766147 Eh     change       -0.1032007E-01 Eh
   gradient norm :     0.0169237 Eh/α   predicted    -0.1053504E-01 (   2.08%)
   displ. norm   :     0.8292750 α      lambda       -0.9260319E-02
   maximum displ.:     0.4088267 α      in ANC's #24, #18, #19, ...

........................................................................
.............................. CYCLE   11 ..............................
........................................................................

 iter      E             dE          RMSdq      gap      omega  full diag
   1   -140.8116907 -0.140812E+03  0.190E-01    0.41       0.0  T
   2   -140.8116973 -0.666265E-05  0.112E-01    0.40       1.0  T
   3   -140.8109437  0.753629E-03  0.879E-02    0.37       1.0  T
   4   -140.8117523 -0.808552E-03  0.210E-02    0.40       1.0  T
   5   -140.8117983 -0.460232E-04  0.639E-03    0.39       1.8  T
   6   -140.8118016 -0.332417E-05  0.268E-03    0.39       4.3  T
   7   -140.8118021 -0.443035E-06  0.115E-03    0.39      10.0  T
   8   -140.8118021 -0.715475E-07  0.392E-04    0.39      29.2  T
   9   -140.8118021 -0.925687E-08  0.160E-04    0.39      71.7  T
     SCC iter.                  ...        0 min,  0.057 sec
     gradient                   ...        0 min,  0.050 sec
 * total energy  :  -138.6841851 Eh     change       -0.7570380E-02 Eh
   gradient norm :     0.0151449 Eh/α   predicted    -0.7814309E-02 (   3.22%)
   displ. norm   :     0.7954292 α      lambda       -0.6630644E-02
   maximum displ.:     0.3463477 α      in ANC's #18, #24, #6, ...

........................................................................
.............................. CYCLE   12 ..............................
........................................................................

 iter      E             dE          RMSdq      gap      omega  full diag
   1   -140.8273541 -0.140827E+03  0.177E-01    0.41       0.0  T
   2   -140.8273460  0.806930E-05  0.106E-01    0.40       1.0  T
   3   -140.8266526  0.693403E-03  0.888E-02    0.37       1.0  T
   4   -140.8274122 -0.759560E-03  0.218E-02    0.40       1.0  T
   5   -140.8274646 -0.524540E-04  0.593E-03    0.39       1.9  T
   6   -140.8274676 -0.301060E-05  0.244E-03    0.39       4.7  T
   7   -140.8274679 -0.287447E-06  0.105E-03    0.39      10.9  T
   8   -140.8274680 -0.531795E-07  0.364E-04    0.39      31.5  T
   9   -140.8274680 -0.714607E-08  0.159E-04    0.39      72.2  T
     SCC iter.                  ...        0 min,  0.058 sec
     gradient                   ...        0 min,  0.050 sec
 * total energy  :  -138.6896018 Eh     change       -0.5416637E-02 Eh
   gradient norm :     0.0146402 Eh/α   predicted    -0.5412960E-02 (  -0.07%)
   displ. norm   :     0.7751499 α      lambda       -0.4909306E-02
   maximum displ.:     0.3388241 α      in ANC's #18, #6, #19, ...

........................................................................
.............................. CYCLE   13 ..............................
........................................................................

 iter      E             dE          RMSdq      gap      omega  full diag
   1   -140.8370837 -0.140837E+03  0.172E-01    0.41       0.0  T
   2   -140.8371089 -0.252283E-04  0.101E-01    0.39       1.0  T
   3   -140.8367856  0.323320E-03  0.618E-02    0.39       1.0  T
   4   -140.8371228 -0.337159E-03  0.167E-02    0.40       1.0  T
   5   -140.8371534 -0.306330E-04  0.562E-03    0.39       2.0  T
   6   -140.8371563 -0.285559E-05  0.215E-03    0.39       5.3  T
   7   -140.8371565 -0.214588E-06  0.933E-04    0.39      12.3  T
   8   -140.8371565 -0.539289E-07  0.301E-04    0.39      38.1  T
     SCC iter.                  ...        0 min,  0.051 sec
     gradient                   ...        0 min,  0.051 sec
 * total energy  :  -138.6935230 Eh     change       -0.3921216E-02 Eh
   gradient norm :     0.0150793 Eh/α   predicted    -0.3929551E-02 (   0.21%)
   displ. norm   :     0.7590628 α      lambda       -0.4023008E-02
   maximum displ.:     0.3317273 α      in ANC's #6, #18, #19, ...

........................................................................
.............................. CYCLE   14 ..............................
........................................................................

 iter      E             dE          RMSdq      gap      omega  full diag
   1   -140.8447041 -0.140845E+03  0.169E-01    0.39       0.0  T
   2   -140.8447254 -0.213363E-04  0.993E-02    0.39       1.0  T
   3   -140.8445673  0.158152E-03  0.460E-02    0.38       1.0  T
   4   -140.8447386 -0.171277E-03  0.101E-02    0.38       1.1  T
   5   -140.8447453 -0.674893E-05  0.560E-03    0.38       2.0  T
   6   -140.8447479 -0.255745E-05  0.249E-03    0.38       4.6  T
   7   -140.8447484 -0.533287E-06  0.682E-04    0.38      16.8  T
   8   -140.8447484 -0.252262E-07  0.292E-04    0.38      39.3  T
     SCC iter.                  ...        0 min,  0.051 sec
     gradient                   ...        0 min,  0.050 sec
 * total energy  :  -138.6966829 Eh     change       -0.3159919E-02 Eh
   gradient norm :     0.0154053 Eh/α   predicted    -0.3170485E-02 (   0.33%)
   displ. norm   :     0.7486879 α      lambda       -0.3294627E-02
   maximum displ.:     0.3239371 α      in ANC's #6, #9, #18, ...

........................................................................
.............................. CYCLE   15 ..............................
........................................................................

 iter      E             dE          RMSdq      gap      omega  full diag
   1   -140.8491255 -0.140849E+03  0.163E-01    0.40       0.0  T
   2   -140.8491371 -0.116293E-04  0.963E-02    0.38       1.0  T
   3   -140.8488719  0.265172E-03  0.503E-02    0.39       1.0  T
   4   -140.8491362 -0.264287E-03  0.130E-02    0.38       1.0  T
   5   -140.8491577 -0.214904E-04  0.418E-03    0.38       2.7  T
   6   -140.8491587 -0.946854E-06  0.169E-03    0.38       6.8  T
   7   -140.8491588 -0.863847E-07  0.713E-04    0.38      16.1  T
   8   -140.8491588 -0.280232E-07  0.289E-04    0.38      39.8  T
     SCC iter.                  ...        0 min,  0.051 sec
     gradient                   ...        0 min,  0.051 sec
 * total energy  :  -138.6993266 Eh     change       -0.2643692E-02 Eh
   gradient norm :     0.0148949 Eh/α   predicted    -0.2570688E-02 (  -2.76%)
   displ. norm   :     0.7644282 α      lambda       -0.3065147E-02
   maximum displ.:     0.3412201 α      in ANC's #6, #9, #15, ...

........................................................................
.............................. CYCLE   16 ..............................
........................................................................

 iter      E             dE          RMSdq      gap      omega  full diag
   1   -140.8508836 -0.140851E+03  0.168E-01    0.38       0.0  T
   2   -140.8508987 -0.150290E-04  0.983E-02    0.38       1.0  T
   3   -140.8507809  0.117781E-03  0.324E-02    0.38       1.0  T
   4   -140.8508943 -0.113390E-03  0.119E-02    0.37       1.0  T
   5   -140.8509096 -0.153752E-04  0.427E-03    0.38       2.7  T
   6   -140.8509104 -0.708599E-06  0.134E-03    0.38       8.6  T
   7   -140.8509104 -0.920342E-07  0.517E-04    0.38      22.2  T
   8   -140.8509105 -0.967879E-08  0.270E-04    0.38      42.5  T
     SCC iter.                  ...        0 min,  0.051 sec
     gradient                   ...        0 min,  0.051 sec
 * total energy  :  -138.7016523 Eh     change       -0.2325677E-02 Eh
   gradient norm :     0.0165545 Eh/α   predicted    -0.2428133E-02 (   4.41%)
   displ. norm   :     0.7308210 α      lambda       -0.2523487E-02
   maximum displ.:     0.3259888 α      in ANC's #6, #9, #7, ...

........................................................................
.............................. CYCLE   17 ..............................
........................................................................

 iter      E             dE          RMSdq      gap      omega  full diag
   1   -140.8475401 -0.140848E+03  0.162E-01    0.38       0.0  T
   2   -140.8475222  0.179697E-04  0.970E-02    0.37       1.0  T
   3   -140.8464365  0.108563E-02  0.910E-02    0.39       1.0  T
   4   -140.8475600 -0.112350E-02  0.134E-02    0.37       1.0  T
   5   -140.8475785 -0.184747E-04  0.395E-03    0.37       2.9  T
   6   -140.8475788 -0.309009E-06  0.178E-03    0.37       6.5  T
   7   -140.8475790 -0.142019E-06  0.817E-04    0.37      14.0  T
   8   -140.8475790 -0.576020E-07  0.316E-04    0.37      36.3  T
     SCC iter.                  ...        0 min,  0.051 sec
     gradient                   ...        0 min,  0.051 sec
 * total energy  :  -138.7034681 Eh     change       -0.1815845E-02 Eh
   gradient norm :     0.0161761 Eh/α   predicted    -0.1935642E-02 (   6.60%)
   displ. norm   :     0.6886895 α      lambda       -0.2257484E-02
   maximum displ.:     0.3025677 α      in ANC's #9, #6, #7, ...

........................................................................
.............................. CYCLE   18 ..............................
........................................................................

 iter      E             dE          RMSdq      gap      omega  full diag
   1   -140.8534769 -0.140853E+03  0.147E-01    0.37       0.0  T
   2   -140.8534556  0.212666E-04  0.890E-02    0.36       1.0  T
   3   -140.8524455  0.101012E-02  0.890E-02    0.39       1.0  T
   4   -140.8534905 -0.104499E-02  0.162E-02    0.36       1.0  T
   5   -140.8535204 -0.298631E-04  0.436E-03    0.37       2.6  T
   6   -140.8535211 -0.768817E-06  0.201E-03    0.37       5.7  T
   7   -140.8535213 -0.154259E-06  0.940E-04    0.37      12.2  T
   8   -140.8535214 -0.744183E-07  0.345E-04    0.37      33.3  T
     SCC iter.                  ...        0 min,  0.051 sec
     gradient                   ...        0 min,  0.051 sec
 * total energy  :  -138.7048221 Eh     change       -0.1353982E-02 Eh
   gradient norm :     0.0193588 Eh/α   predicted    -0.1664097E-02 (  22.90%)
   displ. norm   :     0.6110990 α      lambda       -0.1774839E-02
   maximum displ.:     0.2731398 α      in ANC's #9, #6, #7, ...

........................................................................
.............................. CYCLE   19 ..............................
........................................................................

 iter      E             dE          RMSdq      gap      omega  full diag
   1   -140.8517613 -0.140852E+03  0.136E-01    0.37       0.0  T
   2   -140.8517724 -0.110989E-04  0.796E-02    0.37       1.0  T
   3   -140.8516991  0.733920E-04  0.273E-02    0.36       1.0  T
   4   -140.8517675 -0.684434E-04  0.101E-02    0.37       1.1  T
   5   -140.8517791 -0.116146E-04  0.346E-03    0.37       3.3  T
   6   -140.8517799 -0.745868E-06  0.158E-03    0.37       7.3  T
   7   -140.8517800 -0.128240E-06  0.622E-04    0.37      18.4  T
   8   -140.8517800 -0.225743E-07  0.258E-04    0.37      44.4  T
     SCC iter.                  ...        0 min,  0.051 sec
     gradient                   ...        0 min,  0.051 sec
 * total energy  :  -138.7059486 Eh     change       -0.1126530E-02 Eh
   gradient norm :     0.0152606 Eh/α   predicted    -0.1218822E-02 (   8.19%)
   displ. norm   :     0.5678943 α      lambda       -0.1594177E-02
   maximum displ.:     0.2588430 α      in ANC's #6, #9, #7, ...

........................................................................
.............................. CYCLE   20 ..............................
........................................................................

 iter      E             dE          RMSdq      gap      omega  full diag
   1   -140.8542276 -0.140854E+03  0.117E-01    0.36       0.0  T
   2   -140.8542394 -0.118430E-04  0.684E-02    0.36       1.0  T
   3   -140.8541789  0.605127E-04  0.269E-02    0.35       1.0  T
   4   -140.8542376 -0.586907E-04  0.909E-03    0.36       1.3  T
   5   -140.8542473 -0.970725E-05  0.303E-03    0.36       3.8  T
   6   -140.8542479 -0.584667E-06  0.141E-03    0.36       8.1  T
   7   -140.8542479 -0.769740E-07  0.364E-04    0.36      31.5  T
   8   -140.8542480 -0.497479E-08  0.186E-04    0.36      61.7  T
     SCC iter.                  ...        0 min,  0.051 sec
     gradient                   ...        0 min,  0.051 sec
 * total energy  :  -138.7070656 Eh     change       -0.1116938E-02 Eh
   gradient norm :     0.0149188 Eh/α   predicted    -0.1054154E-02 (  -5.62%)
   displ. norm   :     0.6131025 α      lambda       -0.1537399E-02
   maximum displ.:     0.2686173 α      in ANC's #9, #6, #7, ...
 * RMSD in coord.:     1.3527336 α      energy gain  -0.4198211E+00 Eh

generating ANC from exact Hessian ...
Using Lindh-Hessian (1995)
 Shifting diagonal of input Hessian by    9.9325203944335763E-003
 Lowest  eigenvalues of input Hessian
    0.000000    0.000000    0.000000    0.000000    0.000000    0.000000
    0.010000    0.010055    0.010083    0.010207    0.010326    0.010555
    0.010669    0.010812    0.011164    0.011299    0.011411    0.011728
 Highest eigenvalues
    2.199461    2.219322    2.287803    2.292846    2.302429    2.316290


........................................................................
.............................. CYCLE   21 ..............................
........................................................................

 iter      E             dE          RMSdq      gap      omega  full diag
   1   -140.8631893 -0.140863E+03  0.112E-01    0.36       0.0  T
   2   -140.8631825  0.677313E-05  0.681E-02    0.35       1.0  T
   3   -140.8626614  0.521073E-03  0.630E-02    0.38       1.0  T
   4   -140.8632015 -0.540041E-03  0.138E-02    0.36       1.0  T
   5   -140.8632209 -0.194791E-04  0.321E-03    0.36       3.6  T
   6   -140.8632214 -0.455773E-06  0.155E-03    0.36       7.4  T
   7   -140.8632215 -0.785320E-07  0.708E-04    0.36      16.2  T
   8   -140.8632215 -0.222043E-07  0.284E-04    0.36      40.4  T
     SCC iter.                  ...        0 min,  0.051 sec
     gradient                   ...        0 min,  0.051 sec
 * total energy  :  -138.7081735 Eh     change       -0.1107948E-02 Eh
   gradient norm :     0.0155722 Eh/α   predicted     0.0000000E+00 (-100.00%)
   displ. norm   :     0.1831705 α      lambda       -0.8029219E-03
   maximum displ.:     0.0691746 α      in ANC's #10, #3, #18, ...

........................................................................
.............................. CYCLE   22 ..............................
........................................................................

 iter      E             dE          RMSdq      gap      omega  full diag
   1   -140.8619101 -0.140862E+03  0.528E-02    0.36       0.0  T
   2   -140.8619127 -0.261886E-05  0.312E-02    0.36       1.0  T
   3   -140.8618842  0.285246E-04  0.179E-02    0.35       1.0  T
   4   -140.8619114 -0.272260E-04  0.616E-03    0.36       1.9  T
   5   -140.8619160 -0.453371E-05  0.146E-03    0.36       7.8  T
   6   -140.8619161 -0.114093E-06  0.717E-04    0.36      16.0  T
   7   -140.8619161 -0.261284E-07  0.272E-04    0.36      42.1  T
     SCC iter.                  ...        0 min,  0.044 sec
     gradient                   ...        0 min,  0.051 sec
 * total energy  :  -138.7088035 Eh     change       -0.6299358E-03 Eh
   gradient norm :     0.0066492 Eh/α   predicted    -0.4149476E-03 ( -34.13%)
   displ. norm   :     0.4345935 α      lambda       -0.1068060E-02
   maximum displ.:     0.1744324 α      in ANC's #10, #3, #11, ...

........................................................................
.............................. CYCLE   23 ..............................
........................................................................

 iter      E             dE          RMSdq      gap      omega  full diag
   1   -140.8595878 -0.140860E+03  0.103E-01    0.36       0.0  T
   2   -140.8595971 -0.928827E-05  0.601E-02    0.35       1.0  T
   3   -140.8595435  0.535277E-04  0.272E-02    0.35       1.0  T
   4   -140.8595978 -0.542857E-04  0.785E-03    0.36       1.5  T
   5   -140.8596041 -0.629869E-05  0.318E-03    0.35       3.6  T
   6   -140.8596049 -0.732853E-06  0.136E-03    0.35       8.4  T
   7   -140.8596050 -0.107486E-06  0.526E-04    0.35      21.8  T
   8   -140.8596050 -0.162347E-07  0.203E-04    0.35      56.6  T
     SCC iter.                  ...        0 min,  0.051 sec
     gradient                   ...        0 min,  0.051 sec
 * total energy  :  -138.7096136 Eh     change       -0.8101229E-03 Eh
   gradient norm :     0.0089164 Eh/α   predicted    -0.6349456E-03 ( -21.62%)
   displ. norm   :     0.5459339 α      lambda       -0.9249354E-03
   maximum displ.:     0.2252194 α      in ANC's #10, #3, #6, ...

........................................................................
.............................. CYCLE   24 ..............................
........................................................................

 iter      E             dE          RMSdq      gap      omega  full diag
   1   -140.8575647 -0.140858E+03  0.116E-01    0.35       0.0  T
   2   -140.8575727 -0.795176E-05  0.678E-02    0.35       1.0  T
   3   -140.8575502  0.225448E-04  0.190E-02    0.35       1.0  T
   4   -140.8575763 -0.261873E-04  0.423E-03    0.35       2.7  T
   5   -140.8575765 -0.196675E-06  0.312E-03    0.35       3.7  T
   6   -140.8575772 -0.663333E-06  0.149E-03    0.35       7.7  T
   7   -140.8575774 -0.220652E-06  0.472E-04    0.35      24.3  T
   8   -140.8575774 -0.117680E-07  0.217E-04    0.35      52.9  T
     SCC iter.                  ...        0 min,  0.051 sec
     gradient                   ...        0 min,  0.051 sec
 * total energy  :  -138.7103919 Eh     change       -0.7783576E-03 Eh
   gradient norm :     0.0149134 Eh/α   predicted    -0.6003925E-03 ( -22.86%)
   displ. norm   :     0.6423082 α      lambda       -0.1077052E-02
   maximum displ.:     0.2581024 α      in ANC's #10, #3, #6, ...

........................................................................
.............................. CYCLE   25 ..............................
........................................................................

 iter      E             dE          RMSdq      gap      omega  full diag
   1   -140.8573596 -0.140857E+03  0.126E-01    0.34       0.0  T
   2   -140.8573653 -0.570564E-05  0.736E-02    0.34       1.0  T
   3   -140.8572691  0.962125E-04  0.277E-02    0.35       1.0  T
   4   -140.8573675 -0.984623E-04  0.747E-03    0.34       1.5  T
   5   -140.8573724 -0.486709E-05  0.275E-03    0.34       4.2  T
   6   -140.8573725 -0.122670E-06  0.123E-03    0.34       9.3  T
   7   -140.8573726 -0.101948E-06  0.435E-04    0.34      26.4  T
   8   -140.8573726 -0.534592E-08  0.238E-04    0.34      48.2  T
     SCC iter.                  ...        0 min,  0.051 sec
     gradient                   ...        0 min,  0.051 sec
 * total energy  :  -138.7113145 Eh     change       -0.9225978E-03 Eh
   gradient norm :     0.0151510 Eh/α   predicted    -0.7607020E-03 ( -17.55%)
   displ. norm   :     0.6431109 α      lambda       -0.1155352E-02
   maximum displ.:     0.2588136 α      in ANC's #3, #10, #5, ...

........................................................................
.............................. CYCLE   26 ..............................
........................................................................

 iter      E             dE          RMSdq      gap      omega  full diag
   1   -140.8616614 -0.140862E+03  0.115E-01    0.34       0.0  T
   2   -140.8616627 -0.126899E-05  0.677E-02    0.33       1.0  T
   3   -140.8613896  0.273074E-03  0.457E-02    0.35       1.0  T
   4   -140.8616735 -0.283919E-03  0.807E-03    0.34       1.4  T
   5   -140.8616792 -0.567676E-05  0.249E-03    0.34       4.6  T
   6   -140.8616793 -0.891654E-07  0.122E-03    0.34       9.4  T
   7   -140.8616794 -0.585957E-07  0.483E-04    0.34      23.7  T
   8   -140.8616794 -0.120785E-07  0.246E-04    0.34      46.7  T
     SCC iter.                  ...        0 min,  0.051 sec
     gradient                   ...        0 min,  0.051 sec
 * total energy  :  -138.7122517 Eh     change       -0.9372041E-03 Eh
   gradient norm :     0.0097147 Eh/α   predicted    -0.8166101E-03 ( -12.87%)
   displ. norm   :     0.6472987 α      lambda       -0.8639490E-03
   maximum displ.:     0.2807486 α      in ANC's #3, #5, #6, ...

........................................................................
.............................. CYCLE   27 ..............................
........................................................................

 iter      E             dE          RMSdq      gap      omega  full diag
   1   -140.8636101 -0.140864E+03  0.108E-01    0.34       0.0  T
   2   -140.8636107 -0.596487E-06  0.638E-02    0.33       1.0  T
   3   -140.8633488  0.261965E-03  0.451E-02    0.35       1.0  T
   4   -140.8636216 -0.272828E-03  0.819E-03    0.33       1.4  T
   5   -140.8636276 -0.601902E-05  0.248E-03    0.34       4.6  T
   6   -140.8636277 -0.108197E-06  0.110E-03    0.34      10.4  T
   7   -140.8636278 -0.374469E-07  0.493E-04    0.34      23.3  T
   8   -140.8636278 -0.145094E-07  0.228E-04    0.34      50.4  T
     SCC iter.                  ...        0 min,  0.051 sec
     gradient                   ...        0 min,  0.051 sec
 * total energy  :  -138.7129612 Eh     change       -0.7094252E-03 Eh
   gradient norm :     0.0077624 Eh/α   predicted    -0.6129812E-03 ( -13.59%)
   displ. norm   :     0.6239645 α      lambda       -0.6845313E-03
   maximum displ.:     0.2940934 α      in ANC's #3, #5, #6, ...

........................................................................
.............................. CYCLE   28 ..............................
........................................................................

 iter      E             dE          RMSdq      gap      omega  full diag
   1   -140.8651843 -0.140865E+03  0.967E-02    0.33       0.0  T
   2   -140.8651847 -0.443160E-06  0.568E-02    0.33       1.0  T
   3   -140.8649913  0.193466E-03  0.392E-02    0.35       1.0  T
   4   -140.8651932 -0.201946E-03  0.690E-03    0.33       1.7  T
   5   -140.8651975 -0.429866E-05  0.225E-03    0.34       5.1  T
   6   -140.8651976 -0.997480E-07  0.863E-04    0.34      13.3  T
   7   -140.8651976 -0.164832E-07  0.436E-04    0.34      26.3  T
     SCC iter.                  ...        0 min,  0.045 sec
     gradient                   ...        0 min,  0.051 sec
 * total energy  :  -138.7135277 Eh     change       -0.5665847E-03 Eh
   gradient norm :     0.0070305 Eh/α   predicted    -0.4755384E-03 ( -16.07%)
   displ. norm   :     0.6186671 α      lambda       -0.5522681E-03
   maximum displ.:     0.3091469 α      in ANC's #3, #5, #6, ...

........................................................................
.............................. CYCLE   29 ..............................
........................................................................

 iter      E             dE          RMSdq      gap      omega  full diag
   1   -140.8640696 -0.140864E+03  0.916E-02    0.33       0.0  T
   2   -140.8640711 -0.145110E-05  0.537E-02    0.33       1.0  T
   3   -140.8639530  0.118054E-03  0.299E-02    0.34       1.0  T
   4   -140.8640767 -0.123682E-03  0.460E-03    0.33       2.5  T
   5   -140.8640781 -0.145942E-05  0.211E-03    0.33       5.4  T
   6   -140.8640783 -0.124864E-06  0.714E-04    0.33      16.1  T
   7   -140.8640783 -0.934611E-08  0.339E-04    0.33      33.8  T
     SCC iter.                  ...        0 min,  0.045 sec
     gradient                   ...        0 min,  0.051 sec
 * total energy  :  -138.7139820 Eh     change       -0.4542549E-03 Eh
   gradient norm :     0.0058045 Eh/α   predicted    -0.3818382E-03 ( -15.94%)
   displ. norm   :     0.5390341 α      lambda       -0.4789604E-03
   maximum displ.:     0.3037871 α      in ANC's #3, #5, #6, ...

........................................................................
.............................. CYCLE   30 ..............................
........................................................................

 iter      E             dE          RMSdq      gap      omega  full diag
   1   -140.8706152 -0.140871E+03  0.740E-02    0.33       0.0  T
   2   -140.8706164 -0.125512E-05  0.431E-02    0.33       1.0  T
   3   -140.8705151  0.101292E-03  0.300E-02    0.34       1.0  T
   4   -140.8706199 -0.104775E-03  0.635E-03    0.33       1.8  T
   5   -140.8706247 -0.480074E-05  0.165E-03    0.33       6.9  T
   6   -140.8706247 -0.335267E-07  0.723E-04    0.33      15.9  T
   7   -140.8706248 -0.175514E-07  0.315E-04    0.33      36.4  T
     SCC iter.                  ...        0 min,  0.044 sec
     gradient                   ...        0 min,  0.051 sec
 * total energy  :  -138.7142958 Eh     change       -0.3138112E-03 Eh
   gradient norm :     0.0079516 Eh/α   predicted    -0.3090636E-03 (  -1.51%)
   displ. norm   :     0.5500276 α      lambda       -0.4318827E-03
   maximum displ.:     0.2949733 α      in ANC's #3, #5, #11, ...

........................................................................
.............................. CYCLE   31 ..............................
........................................................................

 iter      E             dE          RMSdq      gap      omega  full diag
   1   -140.8642527 -0.140864E+03  0.821E-02    0.33       0.0  T
   2   -140.8642551 -0.238371E-05  0.483E-02    0.33       1.0  T
   3   -140.8642072  0.479125E-04  0.202E-02    0.34       1.0  T
   4   -140.8642566 -0.494349E-04  0.492E-03    0.33       2.3  T
   5   -140.8642589 -0.221466E-05  0.192E-03    0.33       6.0  T
   6   -140.8642589 -0.882690E-07  0.838E-04    0.33      13.7  T
   7   -140.8642590 -0.372947E-07  0.330E-04    0.33      34.8  T
     SCC iter.                  ...        0 min,  0.043 sec
     gradient                   ...        0 min,  0.051 sec
 * total energy  :  -138.7145863 Eh     change       -0.2904673E-03 Eh
   gradient norm :     0.0056332 Eh/α   predicted    -0.2812800E-03 (  -3.16%)
   displ. norm   :     0.3415249 α      lambda       -0.2388373E-03
   maximum displ.:     0.2088579 α      in ANC's #3, #5, #4, ...

........................................................................
.............................. CYCLE   32 ..............................
........................................................................

 iter      E             dE          RMSdq      gap      omega  full diag
   1   -140.8657802 -0.140866E+03  0.471E-02    0.33       0.0  T
   2   -140.8657808 -0.630326E-06  0.275E-02    0.33       1.0  T
   3   -140.8657579  0.229626E-04  0.140E-02    0.34       1.0  T
   4   -140.8657818 -0.238996E-04  0.281E-03    0.33       4.1  T
   5   -140.8657825 -0.774327E-06  0.115E-03    0.33      10.0  T
   6   -140.8657826 -0.439740E-07  0.437E-04    0.33      26.2  T
   7   -140.8657826 -0.975061E-08  0.169E-04    0.33      67.9  T
     SCC iter.                  ...        0 min,  0.043 sec
     gradient                   ...        0 min,  0.051 sec
 * total energy  :  -138.7148006 Eh     change       -0.2142878E-03 Eh
   gradient norm :     0.0053953 Eh/α   predicted    -0.1333519E-03 ( -37.77%)
   displ. norm   :     0.4532746 α      lambda       -0.4069599E-03
   maximum displ.:     0.2816759 α      in ANC's #3, #5, #4, ...

........................................................................
.............................. CYCLE   33 ..............................
........................................................................

 iter      E             dE          RMSdq      gap      omega  full diag
   1   -140.8703271 -0.140870E+03  0.706E-02    0.33       0.0  T
   2   -140.8703292 -0.215694E-05  0.411E-02    0.33       1.0  T
   3   -140.8703042  0.250691E-04  0.155E-02    0.34       1.0  T
   4   -140.8703300 -0.258612E-04  0.387E-03    0.33       3.0  T
   5   -140.8703314 -0.142009E-05  0.181E-03    0.33       6.3  T
   6   -140.8703316 -0.176165E-06  0.616E-04    0.33      18.6  T
   7   -140.8703316 -0.227752E-07  0.237E-04    0.33      48.4  T
     SCC iter.                  ...        0 min,  0.042 sec
     gradient                   ...        0 min,  0.051 sec
 * total energy  :  -138.7151370 Eh     change       -0.3364204E-03 Eh
   gradient norm :     0.0054431 Eh/α   predicted    -0.2452897E-03 ( -27.09%)
   displ. norm   :     0.5663312 α      lambda       -0.4084268E-03
   maximum displ.:     0.3523301 α      in ANC's #3, #5, #4, ...

........................................................................
.............................. CYCLE   34 ..............................
........................................................................

 iter      E             dE          RMSdq      gap      omega  full diag
   1   -140.8710290 -0.140871E+03  0.875E-02    0.33       0.0  T
   2   -140.8710324 -0.343047E-05  0.510E-02    0.33       1.0  T
   3   -140.8710236  0.879325E-05  0.105E-02    0.33       1.1  T
   4   -140.8710336 -0.993550E-05  0.316E-03    0.33       3.6  T
   5   -140.8710338 -0.231061E-06  0.220E-03    0.33       5.2  T
   6   -140.8710342 -0.403417E-06  0.813E-04    0.33      14.1  T
   7   -140.8710343 -0.574850E-07  0.286E-04    0.33      40.2  T
     SCC iter.                  ...        0 min,  0.043 sec
     gradient                   ...        0 min,  0.051 sec
 * total energy  :  -138.7154691 Eh     change       -0.3321170E-03 Eh
   gradient norm :     0.0067089 Eh/α   predicted    -0.2697109E-03 ( -18.79%)
   displ. norm   :     0.5405712 α      lambda       -0.3385333E-03
   maximum displ.:     0.3425273 α      in ANC's #3, #5, #4, ...

........................................................................
.............................. CYCLE   35 ..............................
........................................................................

 iter      E             dE          RMSdq      gap      omega  full diag
   1   -140.8701582 -0.140870E+03  0.790E-02    0.33       0.0  T
   2   -140.8701611 -0.299461E-05  0.460E-02    0.33       1.0  T
   3   -140.8701569  0.428359E-05  0.788E-03    0.33       1.5  T
   4   -140.8701620 -0.512101E-05  0.272E-03    0.33       4.2  T
   5   -140.8701621 -0.769982E-07  0.198E-03    0.33       5.8  T
   6   -140.8701625 -0.399099E-06  0.644E-04    0.33      17.8  T
   7   -140.8701625 -0.280199E-07  0.268E-04    0.33      42.8  T
     SCC iter.                  ...        0 min,  0.043 sec
     gradient                   ...        0 min,  0.051 sec
 * total energy  :  -138.7157520 Eh     change       -0.2828619E-03 Eh
   gradient norm :     0.0060218 Eh/α   predicted    -0.2187332E-03 ( -22.67%)
   displ. norm   :     0.5163103 α      lambda       -0.3182252E-03
   maximum displ.:     0.3318704 α      in ANC's #3, #5, #4, ...

........................................................................
.............................. CYCLE   36 ..............................
........................................................................

 iter      E             dE          RMSdq      gap      omega  full diag
   1   -140.8696807 -0.140870E+03  0.736E-02    0.33       0.0  T
   2   -140.8696831 -0.244723E-05  0.430E-02    0.34       1.0  T
   3   -140.8696517  0.314403E-04  0.183E-02    0.33       1.0  T
   4   -140.8696843 -0.325804E-04  0.403E-03    0.34       2.8  T
   5   -140.8696861 -0.178005E-05  0.189E-03    0.34       6.1  T
   6   -140.8696863 -0.223609E-06  0.714E-04    0.34      16.1  T
   7   -140.8696863 -0.178486E-07  0.261E-04    0.34      43.9  T
     SCC iter.                  ...        0 min,  0.042 sec
     gradient                   ...        0 min,  0.051 sec
 * total energy  :  -138.7160292 Eh     change       -0.2772825E-03 Eh
   gradient norm :     0.0050943 Eh/α   predicted    -0.2015323E-03 ( -27.32%)
   displ. norm   :     0.5422264 α      lambda       -0.3454585E-03
   maximum displ.:     0.3536182 α      in ANC's #3, #5, #4, ...

........................................................................
.............................. CYCLE   37 ..............................
........................................................................

 iter      E             dE          RMSdq      gap      omega  full diag
   1   -140.8690204 -0.140869E+03  0.770E-02    0.34       0.0  T
   2   -140.8690235 -0.301349E-05  0.449E-02    0.34       1.0  T
   3   -140.8689698  0.536126E-04  0.242E-02    0.34       1.0  T
   4   -140.8690257 -0.558161E-04  0.514E-03    0.35       2.2  T
   5   -140.8690288 -0.313869E-05  0.219E-03    0.34       5.2  T
   6   -140.8690291 -0.311344E-06  0.836E-04    0.34      13.7  T
   7   -140.8690291 -0.181470E-07  0.335E-04    0.34      34.2  T
     SCC iter.                  ...        0 min,  0.042 sec
     gradient                   ...        0 min,  0.051 sec
 * total energy  :  -138.7163303 Eh     change       -0.3010135E-03 Eh
   gradient norm :     0.0050726 Eh/α   predicted    -0.2235149E-03 ( -25.75%)
   displ. norm   :     0.5927554 α      lambda       -0.3733895E-03
   maximum displ.:     0.3898764 α      in ANC's #3, #5, #4, ...

........................................................................
.............................. CYCLE   38 ..............................
........................................................................

 iter      E             dE          RMSdq      gap      omega  full diag
   1   -140.8688914 -0.140869E+03  0.881E-02    0.35       0.0  T
   2   -140.8688972 -0.582650E-05  0.510E-02    0.35       1.0  T
   3   -140.8688437  0.534724E-04  0.254E-02    0.35       1.0  T
   4   -140.8688996 -0.558989E-04  0.591E-03    0.35       1.9  T
   5   -140.8689034 -0.374566E-05  0.287E-03    0.35       4.0  T
   6   -140.8689040 -0.659323E-06  0.102E-03    0.35      11.3  T
   7   -140.8689040 -0.295634E-07  0.406E-04    0.35      28.2  T
   8   -140.8689041 -0.952227E-08  0.161E-04    0.35      71.3  T
     SCC iter.                  ...        0 min,  0.049 sec
     gradient                   ...        0 min,  0.051 sec
 * total energy  :  -138.7166477 Eh     change       -0.3174496E-03 Eh
   gradient norm :     0.0061770 Eh/α   predicted    -0.2522963E-03 ( -20.52%)
   displ. norm   :     0.6201688 α      lambda       -0.3725888E-03
   maximum displ.:     0.4107631 α      in ANC's #3, #5, #4, ...

........................................................................
.............................. CYCLE   39 ..............................
........................................................................

 iter      E             dE          RMSdq      gap      omega  full diag
   1   -140.8674235 -0.140867E+03  0.967E-02    0.35       0.0  T
   2   -140.8674314 -0.788516E-05  0.558E-02    0.36       1.0  T
   3   -140.8673824  0.490156E-04  0.243E-02    0.35       1.0  T
   4   -140.8674332 -0.508404E-04  0.628E-03    0.36       1.8  T
   5   -140.8674370 -0.377100E-05  0.329E-03    0.36       3.5  T
   6   -140.8674380 -0.945126E-06  0.114E-03    0.36      10.0  T
   7   -140.8674380 -0.486137E-07  0.446E-04    0.36      25.7  T
   8   -140.8674380 -0.109442E-07  0.178E-04    0.36      64.4  T
     SCC iter.                  ...        0 min,  0.048 sec
     gradient                   ...        0 min,  0.051 sec
 * total energy  :  -138.7169567 Eh     change       -0.3089615E-03 Eh
   gradient norm :     0.0074014 Eh/α   predicted    -0.2579511E-03 ( -16.51%)
   displ. norm   :     0.6016898 α      lambda       -0.3449750E-03
   maximum displ.:     0.4039595 α      in ANC's #3, #5, #4, ...

........................................................................
.............................. CYCLE   40 ..............................
........................................................................

 iter      E             dE          RMSdq      gap      omega  full diag
   1   -140.8679390 -0.140868E+03  0.958E-02    0.36       0.0  T
   2   -140.8679480 -0.899374E-05  0.551E-02    0.36       1.0  T
   3   -140.8679292  0.188053E-04  0.177E-02    0.37       1.0  T
   4   -140.8679520 -0.227628E-04  0.366E-03    0.37       3.1  T
   5   -140.8679522 -0.278564E-06  0.206E-03    0.36       5.6  T
   6   -140.8679523 -0.113541E-06  0.121E-03    0.37       9.5  T
   7   -140.8679525 -0.141516E-06  0.487E-04    0.36      23.6  T
   8   -140.8679525 -0.205330E-07  0.185E-04    0.36      62.0  T
     SCC iter.                  ...        0 min,  0.048 sec
     gradient                   ...        0 min,  0.051 sec
 * total energy  :  -138.7172425 Eh     change       -0.2858444E-03 Eh
   gradient norm :     0.0067128 Eh/α   predicted    -0.2349381E-03 ( -17.81%)
   displ. norm   :     0.5825642 α      lambda       -0.3012619E-03
   maximum displ.:     0.3998691 α      in ANC's #3, #5, #4, ...

........................................................................
.............................. CYCLE   41 ..............................
........................................................................

 iter      E             dE          RMSdq      gap      omega  full diag
   1   -140.8673998 -0.140867E+03  0.910E-02    0.37       0.0  T
   2   -140.8674071 -0.732295E-05  0.523E-02    0.37       1.0  T
   3   -140.8673839  0.231838E-04  0.165E-02    0.38       1.0  T
   4   -140.8674067 -0.227705E-04  0.620E-03    0.37       1.9  T
   5   -140.8674103 -0.360778E-05  0.277E-03    0.37       4.1  T
   6   -140.8674109 -0.546742E-06  0.990E-04    0.37      11.6  T
   7   -140.8674109 -0.628688E-07  0.419E-04    0.37      27.4  T
     SCC iter.                  ...        0 min,  0.043 sec
     gradient                   ...        0 min,  0.051 sec
 * total energy  :  -138.7174924 Eh     change       -0.2498943E-03 Eh
   gradient norm :     0.0052685 Eh/α   predicted    -0.2017559E-03 ( -19.26%)
   displ. norm   :     0.5298157 α      lambda       -0.2615738E-03
   maximum displ.:     0.3759478 α      in ANC's #3, #5, #4, ...

........................................................................
.............................. CYCLE   42 ..............................
........................................................................

 iter      E             dE          RMSdq      gap      omega  full diag
   1   -140.8699861 -0.140870E+03  0.798E-02    0.37       0.0  T
   2   -140.8699919 -0.574842E-05  0.460E-02    0.37       1.0  T
   3   -140.8699676  0.242730E-04  0.163E-02    0.38       1.0  T
   4   -140.8699911 -0.234730E-04  0.594E-03    0.37       1.9  T
   5   -140.8699947 -0.366758E-05  0.252E-03    0.37       4.5  T
   6   -140.8699952 -0.462817E-06  0.852E-04    0.37      13.5  T
   7   -140.8699952 -0.383743E-07  0.388E-04    0.37      29.6  T
     SCC iter.                  ...        0 min,  0.043 sec
     gradient                   ...        0 min,  0.051 sec
 * total energy  :  -138.7176974 Eh     change       -0.2049591E-03 Eh
   gradient norm :     0.0044983 Eh/α   predicted    -0.1674998E-03 ( -18.28%)
   displ. norm   :     0.5322011 α      lambda       -0.2316894E-03
   maximum displ.:     0.3803858 α      in ANC's #3, #5, #4, ...
 * RMSD in coord.:     1.1523953 α      energy gain  -0.1063180E-01 Eh

generating ANC from exact Hessian ...
Using Lindh-Hessian (1995)
 Shifting diagonal of input Hessian by    9.9387783846416229E-003
 Lowest  eigenvalues of input Hessian
    0.000000    0.000000    0.000000    0.000000    0.000000    0.000000
    0.010000    0.010052    0.010083    0.010207    0.010381    0.010672
    0.010748    0.010848    0.011049    0.011292    0.011492    0.011844
 Highest eigenvalues
    2.204139    2.218129    2.283834    2.286442    2.304098    2.315764


........................................................................
.............................. CYCLE   43 ..............................
........................................................................

 iter      E             dE          RMSdq      gap      omega  full diag
   1   -140.8686658 -0.140869E+03  0.755E-02    0.37       0.0  T
   2   -140.8686690 -0.321873E-05  0.438E-02    0.37       1.0  T
   3   -140.8685991  0.699441E-04  0.246E-02    0.38       1.0  T
   4   -140.8686697 -0.706338E-04  0.651E-03    0.37       1.8  T
   5   -140.8686744 -0.467551E-05  0.211E-03    0.37       5.4  T
   6   -140.8686745 -0.155260E-06  0.830E-04    0.37      13.8  T
   7   -140.8686746 -0.356179E-07  0.362E-04    0.37      31.7  T
     SCC iter.                  ...        0 min,  0.043 sec
     gradient                   ...        0 min,  0.051 sec
 * total energy  :  -138.7178749 Eh     change       -0.1775580E-03 Eh
   gradient norm :     0.0057644 Eh/α   predicted     0.0000000E+00 (-100.00%)
   displ. norm   :     0.0557006 α      lambda       -0.6490809E-04
   maximum displ.:     0.0382309 α      in ANC's #3, #17, #6, ...

........................................................................
.............................. CYCLE   44 ..............................
........................................................................

 iter      E             dE          RMSdq      gap      omega  full diag
   1   -140.8704391 -0.140870E+03  0.147E-02    0.37       0.0  T
   2   -140.8704394 -0.292741E-06  0.872E-03    0.37       1.3  T
   3   -140.8704373  0.213801E-05  0.545E-03    0.37       2.1  T
   4   -140.8704394 -0.211878E-05  0.168E-03    0.37       6.8  T
   5   -140.8704398 -0.364807E-06  0.511E-04    0.37      22.4  T
   6   -140.8704398 -0.219435E-07  0.200E-04    0.37      57.5  T
     SCC iter.                  ...        0 min,  0.036 sec
     gradient                   ...        0 min,  0.051 sec
 * total energy  :  -138.7179401 Eh     change       -0.6520036E-04 Eh
   gradient norm :     0.0029091 Eh/α   predicted    -0.4009671E-04 ( -38.50%)
   displ. norm   :     0.1446027 α      lambda       -0.1227606E-03
   maximum displ.:     0.0981674 α      in ANC's #3, #17, #6, ...

........................................................................
.............................. CYCLE   45 ..............................
........................................................................

 iter      E             dE          RMSdq      gap      omega  full diag
   1   -140.8725344 -0.140873E+03  0.355E-02    0.37       0.0  T
   2   -140.8725357 -0.129376E-05  0.207E-02    0.37       1.0  T
   3   -140.8725290  0.674518E-05  0.989E-03    0.37       1.2  T
   4   -140.8725359 -0.692170E-05  0.266E-03    0.37       4.3  T
   5   -140.8725367 -0.790761E-06  0.111E-03    0.37      10.4  T
   6   -140.8725368 -0.986497E-07  0.420E-04    0.37      27.3  T
   7   -140.8725368 -0.654305E-08  0.164E-04    0.37      69.9  T
     SCC iter.                  ...        0 min,  0.042 sec
     gradient                   ...        0 min,  0.051 sec
 * total energy  :  -138.7180266 Eh     change       -0.8644864E-04 Eh
   gradient norm :     0.0028591 Eh/α   predicted    -0.6266440E-04 ( -27.51%)
   displ. norm   :     0.1413366 α      lambda       -0.6916398E-04
   maximum displ.:     0.0988999 α      in ANC's #3, #6, #17, ...

........................................................................
.............................. CYCLE   46 ..............................
........................................................................

 iter      E             dE          RMSdq      gap      omega  full diag
   1   -140.8729151 -0.140873E+03  0.320E-02    0.37       0.0  T
   2   -140.8729159 -0.855082E-06  0.186E-02    0.37       1.0  T
   3   -140.8729146  0.132212E-05  0.467E-03    0.37       2.5  T
   4   -140.8729163 -0.165055E-05  0.111E-03    0.37      10.3  T
   5   -140.8729163  0.105191E-07  0.791E-04    0.37      14.5  T
   6   -140.8729163 -0.414747E-07  0.400E-04    0.37      28.7  T
     SCC iter.                  ...        0 min,  0.037 sec
     gradient                   ...        0 min,  0.051 sec
 * total energy  :  -138.7180824 Eh     change       -0.5580833E-04 Eh
   gradient norm :     0.0041317 Eh/α   predicted    -0.3527336E-04 ( -36.80%)
   displ. norm   :     0.1541840 α      lambda       -0.6929966E-04
   maximum displ.:     0.1088806 α      in ANC's #3, #6, #2, ...

........................................................................
.............................. CYCLE   47 ..............................
........................................................................

 iter      E             dE          RMSdq      gap      omega  full diag
   1   -140.8724587 -0.140872E+03  0.330E-02    0.37       0.0  T
   2   -140.8724594 -0.731874E-06  0.191E-02    0.36       1.0  T
   3   -140.8724497  0.969681E-05  0.911E-03    0.37       1.3  T
   4   -140.8724597 -0.998700E-05  0.235E-03    0.36       4.9  T
   5   -140.8724602 -0.509383E-06  0.102E-03    0.36      11.2  T
   6   -140.8724603 -0.586056E-07  0.351E-04    0.36      32.6  T
   7   -140.8724603 -0.551867E-08  0.129E-04    0.36      88.8  T
     SCC iter.                  ...        0 min,  0.042 sec
     gradient                   ...        0 min,  0.051 sec
 * total energy  :  -138.7181409 Eh     change       -0.5848302E-04 Eh
   gradient norm :     0.0036304 Eh/α   predicted    -0.3548595E-04 ( -39.32%)
   displ. norm   :     0.1671561 α      lambda       -0.6977114E-04
   maximum displ.:     0.1205183 α      in ANC's #3, #6, #2, ...

........................................................................
.............................. CYCLE   48 ..............................
........................................................................

 iter      E             dE          RMSdq      gap      omega  full diag
   1   -140.8718309 -0.140872E+03  0.328E-02    0.36       0.0  T
   2   -140.8718312 -0.231570E-06  0.192E-02    0.36       1.0  T
   3   -140.8718069  0.242372E-04  0.149E-02    0.37       1.0  T
   4   -140.8718325 -0.255252E-04  0.322E-03    0.36       3.6  T
   5   -140.8718336 -0.113523E-05  0.103E-03    0.36      11.1  T
   6   -140.8718336 -0.438822E-07  0.380E-04    0.36      30.2  T
   7   -140.8718336 -0.422210E-08  0.160E-04    0.36      71.5  T
     SCC iter.                  ...        0 min,  0.043 sec
     gradient                   ...        0 min,  0.051 sec
 * total energy  :  -138.7181993 Eh     change       -0.5842997E-04 Eh
   gradient norm :     0.0022742 Eh/α   predicted    -0.3586279E-04 ( -38.62%)
   displ. norm   :     0.1661439 α      lambda       -0.6109467E-04
   maximum displ.:     0.1215105 α      in ANC's #3, #6, #2, ...

........................................................................
.............................. CYCLE   49 ..............................
........................................................................

 iter      E             dE          RMSdq      gap      omega  full diag
   1   -140.8714998 -0.140871E+03  0.294E-02    0.36       0.0  T
   2   -140.8714995  0.295679E-06  0.174E-02    0.36       1.0  T
   3   -140.8714754  0.240721E-04  0.153E-02    0.37       1.0  T
   4   -140.8715014 -0.259383E-04  0.335E-03    0.36       3.4  T
   5   -140.8715027 -0.129440E-05  0.902E-04    0.36      12.7  T
   6   -140.8715027 -0.234091E-07  0.368E-04    0.36      31.2  T
   7   -140.8715027 -0.482396E-08  0.158E-04    0.36      72.7  T
     SCC iter.                  ...        0 min,  0.042 sec
     gradient                   ...        0 min,  0.051 sec
 * total energy  :  -138.7182520 Eh     change       -0.5268188E-04 Eh
   gradient norm :     0.0017957 Eh/α   predicted    -0.3139170E-04 ( -40.41%)
   displ. norm   :     0.2488839 α      lambda       -0.5806714E-04
   maximum displ.:     0.1812501 α      in ANC's #3, #6, #2, ...

........................................................................
.............................. CYCLE   50 ..............................
........................................................................

 iter      E             dE          RMSdq      gap      omega  full diag
   1   -140.8714384 -0.140871E+03  0.408E-02    0.36       0.0  T
   2   -140.8714374  0.984175E-06  0.242E-02    0.35       1.0  T
   3   -140.8713857  0.517500E-04  0.221E-02    0.36       1.0  T
   4   -140.8714415 -0.558160E-04  0.447E-03    0.36       2.6  T
   5   -140.8714438 -0.230159E-05  0.121E-03    0.36       9.5  T
   6   -140.8714438 -0.346497E-07  0.511E-04    0.36      22.4  T
   7   -140.8714439 -0.111830E-07  0.216E-04    0.36      53.2  T
     SCC iter.                  ...        0 min,  0.043 sec
     gradient                   ...        0 min,  0.051 sec
 * total energy  :  -138.7183254 Eh     change       -0.7338150E-04 Eh
   gradient norm :     0.0029961 Eh/α   predicted    -0.2984052E-04 ( -59.34%)
   displ. norm   :     0.1564050 α      lambda       -0.5364799E-04
   maximum displ.:     0.1127849 α      in ANC's #3, #6, #2, ...

........................................................................
.............................. CYCLE   51 ..............................
........................................................................

 iter      E             dE          RMSdq      gap      omega  full diag
   1   -140.8716752 -0.140872E+03  0.249E-02    0.36       0.0  T
   2   -140.8716753 -0.233965E-07  0.146E-02    0.35       1.0  T
   3   -140.8716603  0.150135E-04  0.110E-02    0.36       1.0  T
   4   -140.8716761 -0.158753E-04  0.162E-03    0.35       7.1  T
   5   -140.8716764 -0.223461E-06  0.733E-04    0.35      15.6  T
   6   -140.8716764 -0.240065E-07  0.282E-04    0.35      40.7  T
     SCC iter.                  ...        0 min,  0.037 sec
     gradient                   ...        0 min,  0.051 sec
 * total energy  :  -138.7183756 Eh     change       -0.5027330E-04 Eh
   gradient norm :     0.0030782 Eh/α   predicted    -0.2748331E-04 ( -45.33%)
   displ. norm   :     0.2129571 α      lambda       -0.7697003E-04
   maximum displ.:     0.1496404 α      in ANC's #3, #2, #6, ...

........................................................................
.............................. CYCLE   52 ..............................
........................................................................

 iter      E             dE          RMSdq      gap      omega  full diag
   1   -140.8720472 -0.140872E+03  0.357E-02    0.35       0.0  T
   2   -140.8720478 -0.631239E-06  0.207E-02    0.35       1.0  T
   3   -140.8720357  0.121324E-04  0.972E-03    0.36       1.2  T
   4   -140.8720484 -0.126813E-04  0.194E-03    0.35       5.9  T
   5   -140.8720487 -0.266140E-06  0.973E-04    0.35      11.8  T
   6   -140.8720487 -0.517393E-07  0.377E-04    0.35      30.4  T
     SCC iter.                  ...        0 min,  0.037 sec
     gradient                   ...        0 min,  0.051 sec
 * total energy  :  -138.7184461 Eh     change       -0.7047707E-04 Eh
   gradient norm :     0.0026322 Eh/α   predicted    -0.4023447E-04 ( -42.91%)
   displ. norm   :     0.2825873 α      lambda       -0.9394809E-04
   maximum displ.:     0.1971182 α      in ANC's #3, #2, #6, ...

........................................................................
.............................. CYCLE   53 ..............................
........................................................................

 iter      E             dE          RMSdq      gap      omega  full diag
   1   -140.8721335 -0.140872E+03  0.481E-02    0.35       0.0  T
   2   -140.8721350 -0.147793E-05  0.279E-02    0.35       1.0  T
   3   -140.8721292  0.582246E-05  0.741E-03    0.36       1.5  T
   4   -140.8721352 -0.596598E-05  0.265E-03    0.35       4.3  T
   5   -140.8721357 -0.522316E-06  0.139E-03    0.35       8.3  T
   6   -140.8721358 -0.129714E-06  0.500E-04    0.35      23.0  T
   7   -140.8721358 -0.198845E-07  0.176E-04    0.35      65.3  T
     SCC iter.                  ...        0 min,  0.042 sec
     gradient                   ...        0 min,  0.051 sec
 * total energy  :  -138.7185297 Eh     change       -0.8356169E-04 Eh
   gradient norm :     0.0020708 Eh/α   predicted    -0.5072625E-04 ( -39.29%)
   displ. norm   :     0.2957595 α      lambda       -0.8615773E-04
   maximum displ.:     0.2075923 α      in ANC's #3, #2, #6, ...

........................................................................
.............................. CYCLE   54 ..............................
........................................................................

 iter      E             dE          RMSdq      gap      omega  full diag
   1   -140.8720687 -0.140872E+03  0.492E-02    0.35       0.0  T
   2   -140.8720702 -0.157500E-05  0.285E-02    0.35       1.0  T
   3   -140.8720679  0.227721E-05  0.585E-03    0.35       2.0  T
   4   -140.8720708 -0.282962E-05  0.179E-03    0.35       6.4  T
   5   -140.8720708 -0.512725E-07  0.107E-03    0.35      10.7  T
   6   -140.8720709 -0.500663E-07  0.532E-04    0.35      21.6  T
   7   -140.8720709 -0.309322E-07  0.189E-04    0.35      60.7  T
     SCC iter.                  ...        0 min,  0.042 sec
     gradient                   ...        0 min,  0.051 sec
 * total energy  :  -138.7186066 Eh     change       -0.7692263E-04 Eh
   gradient norm :     0.0018429 Eh/α   predicted    -0.4684841E-04 ( -39.10%)
   displ. norm   :     0.3943710 α      lambda       -0.7165848E-04
   maximum displ.:     0.2804321 α      in ANC's #3, #2, #6, ...

........................................................................
.............................. CYCLE   55 ..............................
........................................................................

 iter      E             dE          RMSdq      gap      omega  full diag
   1   -140.8720584 -0.140872E+03  0.621E-02    0.35       0.0  T
   2   -140.8720608 -0.244698E-05  0.360E-02    0.35       1.0  T
   3   -140.8720567  0.411982E-05  0.781E-03    0.35       1.5  T
   4   -140.8720615 -0.474803E-05  0.255E-03    0.35       4.5  T
   5   -140.8720615 -0.470852E-07  0.189E-03    0.35       6.1  T
   6   -140.8720619 -0.396528E-06  0.608E-04    0.35      18.9  T
   7   -140.8720619 -0.287500E-07  0.207E-04    0.35      55.4  T
     SCC iter.                  ...        0 min,  0.043 sec
     gradient                   ...        0 min,  0.051 sec
 * total energy  :  -138.7187007 Eh     change       -0.9405824E-04 Eh
   gradient norm :     0.0019363 Eh/α   predicted    -0.3830623E-04 ( -59.27%)
   displ. norm   :     0.3035523 α      lambda       -0.5470461E-04
   maximum displ.:     0.2207013 α      in ANC's #3, #2, #6, ...

........................................................................
.............................. CYCLE   56 ..............................
........................................................................

 iter      E             dE          RMSdq      gap      omega  full diag
   1   -140.8724841 -0.140872E+03  0.428E-02    0.35       0.0  T
   2   -140.8724853 -0.122364E-05  0.248E-02    0.35       1.0  T
   3   -140.8724844  0.963696E-06  0.410E-03    0.35       2.8  T
   4   -140.8724856 -0.120136E-05  0.179E-03    0.35       6.4  T
   5   -140.8724856 -0.600373E-07  0.119E-03    0.35       9.7  T
   6   -140.8724858 -0.145155E-06  0.409E-04    0.35      28.1  T
   7   -140.8724858 -0.153272E-07  0.147E-04    0.35      77.9  T
     SCC iter.                  ...        0 min,  0.042 sec
     gradient                   ...        0 min,  0.051 sec
 * total energy  :  -138.7187760 Eh     change       -0.7533618E-04 Eh
   gradient norm :     0.0017674 Eh/α   predicted    -0.2847325E-04 ( -62.21%)
   displ. norm   :     0.2767338 α      lambda       -0.5218065E-04
   maximum displ.:     0.2028553 α      in ANC's #3, #2, #6, ...

........................................................................
.............................. CYCLE   57 ..............................
........................................................................

 iter      E             dE          RMSdq      gap      omega  full diag
   1   -140.8728191 -0.140873E+03  0.364E-02    0.35       0.0  T
   2   -140.8728200 -0.938298E-06  0.211E-02    0.35       1.0  T
   3   -140.8728188  0.122291E-05  0.396E-03    0.36       2.9  T
   4   -140.8728200 -0.125777E-05  0.187E-03    0.35       6.1  T
   5   -140.8728203 -0.226202E-06  0.105E-03    0.36      11.0  T
   6   -140.8728204 -0.989784E-07  0.326E-04    0.35      35.2  T
   7   -140.8728204 -0.735787E-08  0.131E-04    0.35      87.5  T
     SCC iter.                  ...        0 min,  0.042 sec
     gradient                   ...        0 min,  0.051 sec
 * total energy  :  -138.7188485 Eh     change       -0.7249620E-04 Eh
   gradient norm :     0.0014195 Eh/α   predicted    -0.2698089E-04 ( -62.78%)
   displ. norm   :     0.2902513 α      lambda       -0.5449373E-04
   maximum displ.:     0.2130075 α      in ANC's #3, #2, #5, ...

........................................................................
.............................. CYCLE   58 ..............................
........................................................................

 iter      E             dE          RMSdq      gap      omega  full diag
   1   -140.8731510 -0.140873E+03  0.366E-02    0.36       0.0  T
   2   -140.8731519 -0.899696E-06  0.213E-02    0.35       1.0  T
   3   -140.8731469  0.507140E-05  0.684E-03    0.36       1.7  T
   4   -140.8731521 -0.521677E-05  0.208E-03    0.35       5.5  T
   5   -140.8731524 -0.342641E-06  0.105E-03    0.36      10.9  T
   6   -140.8731525 -0.710131E-07  0.325E-04    0.36      35.3  T
   7   -140.8731525 -0.552089E-08  0.143E-04    0.36      80.2  T
     SCC iter.                  ...        0 min,  0.042 sec
     gradient                   ...        0 min,  0.051 sec
 * total energy  :  -138.7189243 Eh     change       -0.7577648E-04 Eh
   gradient norm :     0.0012324 Eh/α   predicted    -0.2826883E-04 ( -62.69%)
   displ. norm   :     0.3174140 α      lambda       -0.5740872E-04
   maximum displ.:     0.2325244 α      in ANC's #3, #2, #5, ...

........................................................................
.............................. CYCLE   59 ..............................
........................................................................

 iter      E             dE          RMSdq      gap      omega  full diag
   1   -140.8733359 -0.140873E+03  0.387E-02    0.36       0.0  T
   2   -140.8733369 -0.957403E-06  0.225E-02    0.35       1.0  T
   3   -140.8733283  0.861524E-05  0.864E-03    0.36       1.3  T
   4   -140.8733372 -0.891131E-05  0.227E-03    0.36       5.1  T
   5   -140.8733376 -0.414264E-06  0.111E-03    0.36      10.3  T
   6   -140.8733377 -0.649336E-07  0.371E-04    0.36      30.9  T
   7   -140.8733377 -0.679125E-08  0.164E-04    0.36      70.0  T
     SCC iter.                  ...        0 min,  0.043 sec
     gradient                   ...        0 min,  0.051 sec
 * total energy  :  -138.7190044 Eh     change       -0.8010635E-04 Eh
   gradient norm :     0.0013442 Eh/α   predicted    -0.2999177E-04 ( -62.56%)
   displ. norm   :     0.3490083 α      lambda       -0.6083057E-04
   maximum displ.:     0.2554024 α      in ANC's #3, #2, #5, ...

........................................................................
.............................. CYCLE   60 ..............................
........................................................................

 iter      E             dE          RMSdq      gap      omega  full diag
   1   -140.8735493 -0.140874E+03  0.404E-02    0.36       0.0  T
   2   -140.8735505 -0.119525E-05  0.235E-02    0.36       1.0  T
   3   -140.8735417  0.886556E-05  0.879E-03    0.36       1.3  T
   4   -140.8735508 -0.909679E-05  0.256E-03    0.36       4.5  T
   5   -140.8735513 -0.552776E-06  0.122E-03    0.36       9.4  T
   6   -140.8735514 -0.803186E-07  0.449E-04    0.36      25.6  T
   7   -140.8735514 -0.100234E-07  0.192E-04    0.36      59.7  T
     SCC iter.                  ...        0 min,  0.042 sec
     gradient                   ...        0 min,  0.051 sec
 * total energy  :  -138.7190894 Eh     change       -0.8503928E-04 Eh
   gradient norm :     0.0015204 Eh/α   predicted    -0.3206429E-04 ( -62.29%)
   displ. norm   :     0.3851835 α      lambda       -0.6435409E-04
   maximum displ.:     0.2817310 α      in ANC's #3, #2, #5, ...

........................................................................
.............................. CYCLE   61 ..............................
........................................................................

 iter      E             dE          RMSdq      gap      omega  full diag
   1   -140.8735300 -0.140874E+03  0.427E-02    0.36       0.0  T
   2   -140.8735316 -0.163600E-05  0.248E-02    0.36       1.0  T
   3   -140.8735252  0.639461E-05  0.797E-03    0.36       1.4  T
   4   -140.8735317 -0.647310E-05  0.286E-03    0.36       4.0  T
   5   -140.8735324 -0.658012E-06  0.144E-03    0.36       8.0  T
   6   -140.8735325 -0.138723E-06  0.569E-04    0.36      20.2  T
   7   -140.8735325 -0.197900E-07  0.227E-04    0.36      50.6  T
     SCC iter.                  ...        0 min,  0.042 sec
     gradient                   ...        0 min,  0.051 sec
 * total energy  :  -138.7191790 Eh     change       -0.8962366E-04 Eh
   gradient norm :     0.0015120 Eh/α   predicted    -0.3430165E-04 ( -61.73%)
   displ. norm   :     0.4131874 α      lambda       -0.6587113E-04
   maximum displ.:     0.3023344 α      in ANC's #3, #2, #5, ...

........................................................................
.............................. CYCLE   62 ..............................
........................................................................

 iter      E             dE          RMSdq      gap      omega  full diag
   1   -140.8736234 -0.140874E+03  0.438E-02    0.36       0.0  T
   2   -140.8736256 -0.216005E-05  0.253E-02    0.36       1.0  T
   3   -140.8736213  0.425098E-05  0.736E-03    0.36       1.6  T
   4   -140.8736261 -0.477806E-05  0.246E-03    0.36       4.7  T
   5   -140.8736263 -0.222048E-06  0.153E-03    0.36       7.5  T
   6   -140.8736265 -0.165974E-06  0.731E-04    0.36      15.7  T
   7   -140.8736265 -0.490661E-07  0.266E-04    0.36      43.1  T
     SCC iter.                  ...        0 min,  0.042 sec
     gradient                   ...        0 min,  0.051 sec
 * total energy  :  -138.7192693 Eh     change       -0.9024724E-04 Eh
   gradient norm :     0.0014473 Eh/α   predicted    -0.3543862E-04 ( -60.73%)
   displ. norm   :     0.4276361 α      lambda       -0.6453156E-04
   maximum displ.:     0.3130632 α      in ANC's #3, #2, #5, ...

........................................................................
.............................. CYCLE   63 ..............................
........................................................................

 iter      E             dE          RMSdq      gap      omega  full diag
   1   -140.8735553 -0.140874E+03  0.450E-02    0.36       0.0  T
   2   -140.8735576 -0.233536E-05  0.261E-02    0.36       1.0  T
   3   -140.8735532  0.446637E-05  0.818E-03    0.36       1.4  T
   4   -140.8735585 -0.532598E-05  0.211E-03    0.36       5.4  T
   5   -140.8735586 -0.128674E-06  0.110E-03    0.36      10.4  T
   6   -140.8735586 -0.140569E-07  0.718E-04    0.36      16.0  T
   7   -140.8735587 -0.492852E-07  0.314E-04    0.36      36.5  T
     SCC iter.                  ...        0 min,  0.043 sec
     gradient                   ...        0 min,  0.051 sec
 * total energy  :  -138.7193566 Eh     change       -0.8734615E-04 Eh
   gradient norm :     0.0012814 Eh/α   predicted    -0.3488996E-04 ( -60.06%)
   displ. norm   :     0.4215345 α      lambda       -0.5860448E-04
   maximum displ.:     0.3089094 α      in ANC's #3, #2, #5, ...

........................................................................
.............................. CYCLE   64 ..............................
........................................................................

 iter      E             dE          RMSdq      gap      omega  full diag
   1   -140.8733953 -0.140873E+03  0.441E-02    0.36       0.0  T
   2   -140.8733976 -0.223369E-05  0.255E-02    0.36       1.0  T
   3   -140.8733923  0.528912E-05  0.841E-03    0.36       1.4  T
   4   -140.8733980 -0.576134E-05  0.255E-03    0.37       4.5  T
   5   -140.8733983 -0.283688E-06  0.170E-03    0.36       6.8  T
   6   -140.8733986 -0.276910E-06  0.698E-04    0.37      16.4  T
   7   -140.8733986 -0.314740E-07  0.271E-04    0.36      42.3  T
     SCC iter.                  ...        0 min,  0.042 sec
     gradient                   ...        0 min,  0.051 sec
 * total energy  :  -138.7194371 Eh     change       -0.8045267E-04 Eh
   gradient norm :     0.0011758 Eh/α   predicted    -0.3161741E-04 ( -60.70%)
   displ. norm   :     0.4094710 α      lambda       -0.5449488E-04
   maximum displ.:     0.3006980 α      in ANC's #3, #2, #5, ...

........................................................................
.............................. CYCLE   65 ..............................
........................................................................

 iter      E             dE          RMSdq      gap      omega  full diag
   1   -140.8737060 -0.140874E+03  0.429E-02    0.37       0.0  T
   2   -140.8737078 -0.182568E-05  0.249E-02    0.37       1.0  T
   3   -140.8737019  0.598899E-05  0.874E-03    0.37       1.3  T
   4   -140.8737082 -0.632201E-05  0.252E-03    0.37       4.6  T
   5   -140.8737085 -0.368165E-06  0.161E-03    0.37       7.1  T
   6   -140.8737088 -0.254527E-06  0.629E-04    0.37      18.2  T
   7   -140.8737088 -0.196145E-07  0.265E-04    0.37      43.4  T
     SCC iter.                  ...        0 min,  0.042 sec
     gradient                   ...        0 min,  0.051 sec
 * total energy  :  -138.7195111 Eh     change       -0.7399623E-04 Eh
   gradient norm :     0.0012396 Eh/α   predicted    -0.2927854E-04 ( -60.43%)
   displ. norm   :     0.4084994 α      lambda       -0.5266263E-04
   maximum displ.:     0.3001759 α      in ANC's #3, #2, #5, ...

........................................................................
.............................. CYCLE   66 ..............................
........................................................................

 iter      E             dE          RMSdq      gap      omega  full diag
   1   -140.8736563 -0.140874E+03  0.439E-02    0.37       0.0  T
   2   -140.8736579 -0.162036E-05  0.255E-02    0.37       1.0  T
   3   -140.8736525  0.543104E-05  0.808E-03    0.37       1.4  T
   4   -140.8736581 -0.556356E-05  0.257E-03    0.37       4.5  T
   5   -140.8736586 -0.500433E-06  0.149E-03    0.37       7.7  T
   6   -140.8736588 -0.205451E-06  0.589E-04    0.37      19.5  T
   7   -140.8736588 -0.151421E-07  0.247E-04    0.37      46.4  T
     SCC iter.                  ...        0 min,  0.042 sec
     gradient                   ...        0 min,  0.051 sec
 * total energy  :  -138.7195824 Eh     change       -0.7129803E-04 Eh
   gradient norm :     0.0012143 Eh/α   predicted    -0.2828698E-04 ( -60.33%)
   displ. norm   :     0.3982349 α      lambda       -0.4826999E-04
   maximum displ.:     0.2937001 α      in ANC's #3, #2, #5, ...
 * RMSD in coord.:     0.7213925 α      energy gain  -0.1885003E-02 Eh

generating ANC from exact Hessian ...
Using Lindh-Hessian (1995)
 Shifting diagonal of input Hessian by    9.9399546393197785E-003
 Lowest  eigenvalues of input Hessian
    0.000000    0.000000    0.000000    0.000000    0.000000    0.000000
    0.010000    0.010052    0.010082    0.010209    0.010389    0.010665
    0.010766    0.010869    0.011080    0.011277    0.011606    0.011940
 Highest eigenvalues
    2.206951    2.218380    2.286739    2.288604    2.305539    2.312952


........................................................................
.............................. CYCLE   67 ..............................
........................................................................

 iter      E             dE          RMSdq      gap      omega  full diag
   1   -140.8735474 -0.140874E+03  0.428E-02    0.37       0.0  T
   2   -140.8735486 -0.122785E-05  0.249E-02    0.37       1.0  T
   3   -140.8735432  0.540535E-05  0.786E-03    0.37       1.5  T
   4   -140.8735488 -0.558374E-05  0.227E-03    0.37       5.1  T
   5   -140.8735492 -0.384403E-06  0.133E-03    0.37       8.6  T
   6   -140.8735493 -0.156992E-06  0.533E-04    0.37      21.5  T
   7   -140.8735493 -0.109843E-07  0.236E-04    0.37      48.7  T
     SCC iter.                  ...        0 min,  0.042 sec
     gradient                   ...        0 min,  0.051 sec
 * total energy  :  -138.7196486 Eh     change       -0.6625182E-04 Eh
   gradient norm :     0.0011552 Eh/α   predicted     0.0000000E+00 (-100.00%)
   displ. norm   :     0.0393765 α      lambda       -0.1003174E-04
   maximum displ.:     0.0299975 α      in ANC's #3, #6, #7, ...

........................................................................
.............................. CYCLE   68 ..............................
........................................................................

 iter      E             dE          RMSdq      gap      omega  full diag
   1   -140.8744963 -0.140874E+03  0.744E-03    0.37       0.0  T
   2   -140.8744964 -0.103360E-06  0.425E-03    0.37       2.7  T
   3   -140.8744963  0.153187E-06  0.180E-03    0.37       6.4  T
   4   -140.8744965 -0.189319E-06  0.428E-04    0.37      26.8  T
   5   -140.8744965  0.355089E-08  0.365E-04    0.37      31.4  T
     SCC iter.                  ...        0 min,  0.030 sec
     gradient                   ...        0 min,  0.051 sec
 * total energy  :  -138.7196616 Eh     change       -0.1295596E-04 Eh
   gradient norm :     0.0006613 Eh/α   predicted    -0.5050851E-05 ( -61.02%)
   displ. norm   :     0.1133025 α      lambda       -0.2272603E-04
   maximum displ.:     0.0765364 α      in ANC's #3, #6, #7, ...

   *** GEOMETRY OPTIMIZATION CONVERGED AFTER 68 ITERATIONS ***

------------------------------------------------------------------------
 total energy gain   :        -0.4324171 Eh     -271.3458 kcal/mol
 total RMSD          :         2.5771765 a0        1.3638 Å
 total power (kW/mol):       -16.6957490 (step) -143.7177 (real)
------------------------------------------------------------------------

 ANCopt (total)                0 d,  0 h,  0 min,  7.900 sec
 optimizer setup                ...        0 min,  0.001 sec (  0.008%)
 model hessian                  ...        0 min,  0.044 sec (  0.553%)
 ANC generation                 ...        0 min,  0.014 sec (  0.180%)
 coordinate transformation      ...        0 min,  0.007 sec (  0.084%)
 single point calculation       ...        0 min,  7.803 sec ( 98.782%)
 optimization log               ...        0 min,  0.016 sec (  0.200%)
 hessian update                 ...        0 min,  0.004 sec (  0.052%)
 rational function              ...        0 min,  0.008 sec (  0.102%)

================
 final structure:
================
 xtb: 6.7.1 (edcfbbe)
          08202606263D

 76 85  0     0  0            999 V2000
    0.7923   -1.6943    3.5378 C   0  0  0  0  0  0  0  0  0  0  0  0
    0.1658    2.4076   -6.5368 H   0  0  0  0  0  0  0  0  0  0  0  0
   -3.5711    4.6310   -1.6866 H   0  0  0  0  0  0  0  0  0  0  0  0
   -4.0081    2.5582   -6.3748 H   0  0  0  0  0  0  0  0  0  0  0  0
    0.9848   -0.8074   -0.2057 C   0  0  0  0  0  0  0  0  0  0  0  0
    6.0981   -7.7760    1.5701 H   0  0  0  0  0  0  0  0  0  0  0  0
    0.0105    0.0720    1.9655 C   0  0  0  0  0  0  0  0  0  0  0  0
   -0.9216    2.2831   -3.8382 N   0  0  0  0  0  0  0  0  0  0  0  0
   -3.1822    3.6423    1.4780 N   0  0  0  0  0  0  0  0  0  0  0  0
   -4.6226    5.5376   -0.1071 C   0  0  0  0  0  0  0  0  0  0  0  0
   -1.3545    2.5835   -8.1449 C   0  0  0  0  0  0  0  0  0  0  0  0
   -3.2684    2.3866   -4.0142 N   0  0  0  0  0  0  0  0  0  0  0  0
    3.8362   -7.1174    2.6191 H   0  0  0  0  0  0  0  0  0  0  0  0
    3.1193   -1.8195   -0.5466 N   0  0  0  0  0  0  0  0  0  0  0  0
   -3.4627    2.7170   -8.8370 H   0  0  0  0  0  0  0  0  0  0  0  0
    6.7944   -4.0949    0.8385 C   0  0  0  0  0  0  0  0  0  0  0  0
    3.3425   -3.0864   -2.1264 H   0  0  0  0  0  0  0  0  0  0  0  0
   -4.3023    2.3220   -2.2524 H   0  0  0  0  0  0  0  0  0  0  0  0
   -1.0668    1.2959    3.8732 O   0  0  0  0  0  0  0  0  0  0  0  0
    5.5551   -4.3976    1.4741 C   0  0  0  0  0  0  0  0  0  0  0  0
    7.6731   -4.9911    0.5132 N   0  0  0  0  0  0  0  0  0  0  0  0
   -0.8230    1.0062    2.5815 C   0  0  0  0  0  0  0  0  0  0  0  0
    1.1800   -4.1856    3.6445 C   0  0  0  0  0  0  0  0  0  0  0  0
    1.6318   -2.8885    3.2630 C   0  0  0  0  0  0  0  0  0  0  0  0
   -2.1491    2.4974   -1.9302 C   0  0  0  0  0  0  0  0  0  0  0  0
    4.0790   -6.0905    2.3754 C   0  0  0  0  0  0  0  0  0  0  0  0
    0.5045   -2.3931    5.4363 H   0  0  0  0  0  0  0  0  0  0  0  0
   -3.0503    3.6130    0.1247 C   0  0  0  0  0  0  0  0  0  0  0  0
    6.2685   -6.7268    1.3770 C   0  0  0  0  0  0  0  0  0  0  0  0
   -5.1851    6.4221   -0.9812 O   0  0  0  0  0  0  0  0  0  0  0  0
    2.3210   -1.0271    0.1394 C   0  0  0  0  0  0  0  0  0  0  0  0
   -1.4318    1.8021    0.3259 C   0  0  0  0  0  0  0  0  0  0  0  0
   -1.9524    2.4490   -5.9917 C   0  0  0  0  0  0  0  0  0  0  0  0
    3.5736   -3.7102    2.3663 C   0  0  0  0  0  0  0  0  0  0  0  0
   -0.7772    2.6287   -9.0467 H   0  0  0  0  0  0  0  0  0  0  0  0
   -5.0966    5.8066    1.1752 C   0  0  0  0  0  0  0  0  0  0  0  0
   -5.9890    7.2276   -0.2736 C   0  0  0  0  0  0  0  0  0  0  0  0
    0.2215   -4.2990    4.1269 H   0  0  0  0  0  0  0  0  0  0  0  0
   -0.8582    2.4686   -6.8432 C   0  0  0  0  0  0  0  0  0  0  0  0
    0.2802   -1.5579    4.7870 C   0  0  0  0  0  0  0  0  0  0  0  0
   -0.8699    0.6932    5.0464 C   0  0  0  0  0  0  0  0  0  0  0  0
   -0.6138    0.8923   -0.2392 N   0  0  0  0  0  0  0  0  0  0  0  0
   -0.4696   -0.6463    6.5182 H   0  0  0  0  0  0  0  0  0  0  0  0
   -2.0366    2.3751   -4.5673 C   0  0  0  0  0  0  0  0  0  0  0  0
    0.7858   -0.9164    2.4487 O   0  0  0  0  0  0  0  0  0  0  0  0
   -2.7289    2.6311   -8.0595 C   0  0  0  0  0  0  0  0  0  0  0  0
   -0.5079   -1.2480   -1.6746 H   0  0  0  0  0  0  0  0  0  0  0  0
    4.7236   -3.4137    1.7850 N   0  0  0  0  0  0  0  0  0  0  0  0
   -2.4880    2.8441    2.2221 C   0  0  0  0  0  0  0  0  0  0  0  0
   -1.5584    1.8961    1.7285 C   0  0  0  0  0  0  0  0  0  0  0  0
    1.3485   -2.2615   -2.0757 C   0  0  0  0  0  0  0  0  0  0  0  0
   -2.2021    2.6523   -0.4947 C   0  0  0  0  0  0  0  0  0  0  0  0
    5.2846   -5.7785    1.7478 C   0  0  0  0  0  0  0  0  0  0  0  0
    1.9556   -5.2612    3.3470 C   0  0  0  0  0  0  0  0  0  0  0  0
    1.0073   -2.7604   -2.9698 H   0  0  0  0  0  0  0  0  0  0  0  0
   -6.5149    7.9913   -0.8124 H   0  0  0  0  0  0  0  0  0  0  0  0
   -3.3245    2.4084   -2.7102 C   0  0  0  0  0  0  0  0  0  0  0  0
   -3.7393    4.5800   -0.6213 C   0  0  0  0  0  0  0  0  0  0  0  0
    2.7754   -0.5426    0.9903 H   0  0  0  0  0  0  0  0  0  0  0  0
    2.7600   -2.6744    2.6516 N   0  0  0  0  0  0  0  0  0  0  0  0
    7.4153   -6.2881    0.7835 C   0  0  0  0  0  0  0  0  0  0  0  0
    8.1981   -6.9739    0.4883 H   0  0  0  0  0  0  0  0  0  0  0  0
   -0.9776    2.3776   -2.5624 N   0  0  0  0  0  0  0  0  0  0  0  0
    2.6453   -2.4353   -1.6139 C   0  0  0  0  0  0  0  0  0  0  0  0
   -2.6574    2.9291    3.2876 H   0  0  0  0  0  0  0  0  0  0  0  0
   -6.5222    7.3746    1.8372 H   0  0  0  0  0  0  0  0  0  0  0  0
    3.2010   -5.0645    2.6971 C   0  0  0  0  0  0  0  0  0  0  0  0
    7.0187   -3.0633    0.6073 H   0  0  0  0  0  0  0  0  0  0  0  0
   -4.8194    5.2680    2.0554 H   0  0  0  0  0  0  0  0  0  0  0  0
    1.6437   -6.2685    3.5902 H   0  0  0  0  0  0  0  0  0  0  0  0
   -1.2700    1.3529    5.8091 H   0  0  0  0  0  0  0  0  0  0  0  0
    0.5092   -1.4280   -1.3601 C   0  0  0  0  0  0  0  0  0  0  0  0
    0.0922    0.1116    0.5197 C   0  0  0  0  0  0  0  0  0  0  0  0
   -3.0779    2.5510   -6.7608 N   0  0  0  0  0  0  0  0  0  0  0  0
   -5.9725    6.8939    1.0536 C   0  0  0  0  0  0  0  0  0  0  0  0
   -0.3735   -0.4926    5.4520 C   0  0  0  0  0  0  0  0  0  0  0  0
  1 24  1  0  0  0  0
  1 40  4  0  0  0  0
  1 45  4  0  0  0  0
  2 39  1  0  0  0  0
  3 58  1  0  0  0  0
  4 74  1  0  0  0  0
  5 31  4  0  0  0  0
  5 72  4  0  0  0  0
  5 73  1  0  0  0  0
  6 29  1  0  0  0  0
  7 22  4  0  0  0  0
  7 45  4  0  0  0  0
  7 73  4  0  0  0  0
  8 44  4  0  0  0  0
  8 63  4  0  0  0  0
  9 28  4  0  0  0  0
  9 49  4  0  0  0  0
 10 30  4  0  0  0  0
 10 36  4  0  0  0  0
 10 58  1  0  0  0  0
 11 35  1  0  0  0  0
 11 39  4  0  0  0  0
 11 46  4  0  0  0  0
 12 44  4  0  0  0  0
 12 57  4  0  0  0  0
 13 26  1  0  0  0  0
 14 31  4  0  0  0  0
 14 64  4  0  0  0  0
 15 46  1  0  0  0  0
 16 20  4  0  0  0  0
 16 21  4  0  0  0  0
 16 68  1  0  0  0  0
 17 64  1  0  0  0  0
 18 57  1  0  0  0  0
 19 22  4  0  0  0  0
 19 41  4  0  0  0  0
 20 48  4  0  0  0  0
 20 53  4  0  0  0  0
 21 61  4  0  0  0  0
 22 50  4  0  0  0  0
 23 24  4  0  0  0  0
 23 38  1  0  0  0  0
 23 54  4  0  0  0  0
 24 60  4  0  0  0  0
 25 52  1  0  0  0  0
 25 57  4  0  0  0  0
 25 63  4  0  0  0  0
 26 53  4  0  0  0  0
 26 67  4  0  0  0  0
 27 40  1  0  0  0  0
 28 52  4  0  0  0  0
 28 58  1  0  0  0  0
 29 53  4  0  0  0  0
 29 61  4  0  0  0  0
 30 37  4  0  0  0  0
 31 59  1  0  0  0  0
 32 42  4  0  0  0  0
 32 50  4  0  0  0  0
 32 52  4  0  0  0  0
 33 39  4  0  0  0  0
 33 44  1  0  0  0  0
 33 74  4  0  0  0  0
 34 48  4  0  0  0  0
 34 60  4  0  0  0  0
 34 67  4  0  0  0  0
 36 69  1  0  0  0  0
 36 75  4  0  0  0  0
 37 56  1  0  0  0  0
 37 75  4  0  0  0  0
 40 76  4  0  0  0  0
 41 71  1  0  0  0  0
 41 76  4  0  0  0  0
 42 73  4  0  0  0  0
 43 76  1  0  0  0  0
 46 74  4  0  0  0  0
 47 72  1  0  0  0  0
 49 50  4  0  0  0  0
 49 65  1  0  0  0  0
 51 55  1  0  0  0  0
 51 64  4  0  0  0  0
 51 72  4  0  0  0  0
 54 67  4  0  0  0  0
 54 70  1  0  0  0  0
 61 62  1  0  0  0  0
 66 75  1  0  0  0  0
M  END
$$$$

 Bond Distances (Angstroems)
 ---------------------------
C1-C24=1.4853        C1-C40=1.3569        C1-O45=1.3384        H2-C39=1.0706        H3-C58=1.0797        H4-N74=1.0071        
C5-C31=1.3974        C5-C72=1.3942        C5-C73=1.4722        H6-C29=1.0803        C7-C22=1.3952        C7-O45=1.3460        
C7-C73=1.4487        N8-C44=1.3354        N8-N63=1.2805        N9-C28=1.3600        N9-C49=1.2933        C10-O30=1.3649       
C10-C36=1.3933       C10-C58=1.4005       C11-H35=1.0717       C11-C39=1.3978       C11-C46=1.3778       N12-C44=1.3503       
N12-C57=1.3054       H13-C26=1.0830       N14-C31=1.3175       N14-C64=1.3203       H15-C46=1.0725       C16-C20=1.4253       
C16-N21=1.2966       C16-H68=1.0807       H17-C64=1.0828       H18-C57=1.0832       O19-C22=1.3460       O19-C41=1.3336       
C20-C16=1.4253       C20-N48=1.3251       C20-C53=1.4335       N21-C16=1.2966       N21-C61=1.3497       C22-C7=1.3952        
C22-O19=1.3460       C22-C50=1.4355       C23-C24=1.4256       C23-H38=1.0790       C23-C54=1.3591       C24-C1=1.4853        
C24-C23=1.4256       C24-N60=1.3009       C25-C52=1.4448       C25-C57=1.4134       C25-N63=1.3366       C26-H13=1.0830       
C26-C53=1.3946       C26-C67=1.3881       H27-C40=1.0814       C28-N9=1.3600        C28-C52=1.4234       C28-C58=1.4023       
C29-H6=1.0803        C29-C53=1.4158       C29-C61=1.3638       O30-C10=1.3649       O30-C37=1.3400       C31-C5=1.3974        
C31-N14=1.3175       C31-H59=1.0795       C32-N42=1.3476       C32-C50=1.4114       C32-C52=1.4106       C33-C39=1.3866       
C33-C44=1.4289       C33-N74=1.3669       C34-N48=1.3223       C34-N60=1.3477       C34-C67=1.4430       H35-C11=1.0717       
C36-C10=1.3933       C36-H69=1.0685       C36-C75=1.4015       C37-O30=1.3400       C37-H56=1.0725       C37-C75=1.3687       
H38-C23=1.0790       C39-H2=1.0706        C39-C11=1.3978       C39-C33=1.3866       C40-C1=1.3569        C40-H27=1.0814       
C40-C76=1.4159       C41-O19=1.3336       C41-H71=1.0850       C41-C76=1.3479       N42-C32=1.3476       N42-C73=1.2976       
H43-C76=1.0814       C44-N8=1.3354        C44-N12=1.3503       C44-C33=1.4289       O45-C1=1.3384        O45-C7=1.3460        
C46-C11=1.3778       C46-H15=1.0725       C46-N74=1.3472       H47-C72=1.0798       N48-C20=1.3251       N48-C34=1.3223       
C49-N9=1.2933        C49-C50=1.4165       C49-H65=1.0821       C50-C22=1.4355       C50-C32=1.4114       C50-C49=1.4165       
C51-H55=1.0793       C51-C64=1.3876       C51-C72=1.3824       C52-C25=1.4448       C52-C28=1.4234       C52-C32=1.4106       
C53-C20=1.4335       C53-C26=1.3946       C53-C29=1.4158       C54-C23=1.3591       C54-C67=1.4184       C54-H70=1.0822       
H55-C51=1.0793       H56-C37=1.0725       C57-N12=1.3054       C57-H18=1.0832       C57-C25=1.4134       C58-H3=1.0797        
C58-C10=1.4005       C58-C28=1.4023       H59-C31=1.0795       N60-C24=1.3009       N60-C34=1.3477       C61-N21=1.3497       
C61-C29=1.3638       C61-H62=1.0817       H62-C61=1.0817       N63-N8=1.2805        N63-C25=1.3366       C64-N14=1.3203       
C64-H17=1.0828       C64-C51=1.3876       H65-C49=1.0821       H66-C75=1.0711       C67-C26=1.3881       C67-C34=1.4430       
C67-C54=1.4184       H68-C16=1.0807       H69-C36=1.0685       H70-C54=1.0822       H71-C41=1.0850       C72-C5=1.3942        
C72-H47=1.0798       C72-C51=1.3824       C73-C5=1.4722        C73-C7=1.4487        C73-N42=1.2976       N74-H4=1.0071        
N74-C33=1.3669       N74-C46=1.3472       C75-C36=1.4015       C75-C37=1.3687       C75-H66=1.0711       C76-C40=1.4159       
C76-C41=1.3479       C76-H43=1.0814       
 C  H  Rav=1.0786 sigma=0.0048  Rmin=1.0685  Rmax=1.0850    22
 C  C  Rav=1.4071 sigma=0.0300  Rmin=1.3479  Rmax=1.4853    37
 N  H  Rav=1.0071 sigma=0.0000  Rmin=1.0071  Rmax=1.0071     1
 N  C  Rav=1.3289 sigma=0.0228  Rmin=1.2933  Rmax=1.3669    18
 N  N  Rav=1.2805 sigma=0.0000  Rmin=1.2805  Rmax=1.2805     1
 O  C  Rav=1.3448 sigma=0.0099  Rmin=1.3336  Rmax=1.3649     6

 selected bond angles (degree)
 --------------------
C40-C1-C24=117.68              O45-C1-C24=108.63              O45-C1-C40=133.54              C72-C5-C31=117.42              
C73-C5-C31=123.79              C73-C5-C72=118.62              O45-C7-C22=132.63              C73-C7-C22=117.13              
C73-C7-O45=110.23              N63-N8-C44=120.15              C49-N9-C28=120.47              C36-C10-O30=108.91             
C58-C10-O30=117.90             C58-C10-C36=133.19             

 selected dihedral angles (degree)
 ---------------------------------

           -------------------------------------------------
          |                Final Singlepoint                |
           -------------------------------------------------

          ...................................................
          :                      SETUP                      :
          :.................................................:
          :  # basis functions                 235          :
          :  # atomic orbitals                 235          :
          :  # shells                          129          :
          :  # electrons                       251          :
          :  max. iterations                   250          :
          :  Hamiltonian                  GFN2-xTB          :
          :  restarted?                      false          :
          :  GBSA solvation                  false          :
          :  PC potential                    false          :
          :  electronic temp.          300.0000000     K    :
          :  accuracy                    1.0000000          :
          :  -> integral cutoff          0.2500000E+02      :
          :  -> integral neglect         0.1000000E-07      :
          :  -> SCF convergence          0.1000000E-05 Eh   :
          :  -> wf. convergence          0.1000000E-03 e    :
          :  Broyden damping             0.4000000          :
          :  net charge                          0          :
          :  unpaired electrons                  0          :
          ...................................................

 iter      E             dE          RMSdq      gap      omega  full diag
   1   -140.8744965 -0.140874E+03  0.119E-04    0.37       0.0  T
   2   -140.8744965  0.146682E-08  0.146E-04    0.37      78.5  T
   3   -140.8744965 -0.268156E-08  0.360E-05    0.37     319.0  T

   *** convergence criteria satisfied after 3 iterations ***

         #    Occupation            Energy/Eh            Energy/eV
      -------------------------------------------------------------
         1        2.0000           -0.7522968             -20.4710
       ...           ...                  ...                  ...
       120        2.0000           -0.3781005             -10.2886
       121        2.0000           -0.3728587             -10.1460
       122        2.0000           -0.3658133              -9.9543
       123        2.0000           -0.3578098              -9.7365
       124        2.0000           -0.3554454              -9.6722
       125        1.9999           -0.3455812              -9.4037
       126        0.9994           -0.3280372              -8.9263 (HOMO)
       127        0.0007           -0.3143453              -8.5538 (LUMO)
       128                         -0.2896320              -7.8813
       129                         -0.2839420              -7.7265
       130                         -0.2712304              -7.3806
       131                         -0.2650674              -7.2129
       ...                                ...                  ...
       235                          0.7663113              20.8524
      -------------------------------------------------------------
                  HL-Gap            0.0136918 Eh            0.3726 eV
             Fermi-level           -0.3290002 Eh           -8.9526 eV

 SCC (total)                   0 d,  0 h,  0 min,  0.087 sec
 SCC setup                      ...        0 min,  0.000 sec (  0.531%)
 Dispersion                     ...        0 min,  0.001 sec (  1.548%)
 classical contributions        ...        0 min,  0.000 sec (  0.267%)
 integral evaluation            ...        0 min,  0.014 sec ( 15.652%)
 iterations                     ...        0 min,  0.019 sec ( 21.697%)
 molecular gradient             ...        0 min,  0.051 sec ( 58.563%)
 printout                       ...        0 min,  0.002 sec (  1.731%)

         :::::::::::::::::::::::::::::::::::::::::::::::::::::
         ::                     SUMMARY                     ::
         :::::::::::::::::::::::::::::::::::::::::::::::::::::
         :: total energy            -138.719661595023 Eh    ::
         :: gradient norm              0.000655144097 Eh/a0 ::
         :: HOMO-LUMO gap              0.372574035869 eV    ::
         ::.................................................::
         :: SCC energy              -140.874768299257 Eh    ::
         :: -> isotropic ES            0.087587840095 Eh    ::
         :: -> anisotropic ES          0.017230517507 Eh    ::
         :: -> anisotropic XC          0.099930805149 Eh    ::
         :: -> dispersion             -0.107651047603 Eh    ::
         :: repulsion energy           2.155106704233 Eh    ::
         :: add. restraining           0.000000000000 Eh    ::
         :: total charge               0.000000000007 e     ::
         :::::::::::::::::::::::::::::::::::::::::::::::::::::

           -------------------------------------------------
          |                Property Printout                |
           -------------------------------------------------

    * Orbital Energies and Occupations

         #    Occupation            Energy/Eh            Energy/eV
      -------------------------------------------------------------
         1        2.0000           -0.7522968             -20.4710
       ...           ...                  ...                  ...
       114        2.0000           -0.4038836             -10.9902
       115        2.0000           -0.3996935             -10.8762
       116        2.0000           -0.3950675             -10.7503
       117        2.0000           -0.3894015             -10.5962
       118        2.0000           -0.3823860             -10.4053
       119        2.0000           -0.3817191             -10.3871
       120        2.0000           -0.3781005             -10.2886
       121        2.0000           -0.3728587             -10.1460
       122        2.0000           -0.3658133              -9.9543
       123        2.0000           -0.3578098              -9.7365
       124        2.0000           -0.3554454              -9.6722
       125        1.9999           -0.3455812              -9.4037
       126        0.9994           -0.3280372              -8.9263 (HOMO)
       127        0.0007           -0.3143453              -8.5538 (LUMO)
       128                         -0.2896320              -7.8813
       129                         -0.2839420              -7.7265
       130                         -0.2712304              -7.3806
       131                         -0.2650674              -7.2129
       132                         -0.2496432              -6.7931
       133                         -0.2469590              -6.7201
       134                         -0.2384883              -6.4896
       135                         -0.2350889              -6.3971
       136                         -0.2263798              -6.1601
       137                         -0.2142103              -5.8290
       ...                                ...                  ...
       235                          0.7663113              20.8524
      -------------------------------------------------------------
                  HL-Gap            0.0136918 Eh            0.3726 eV
             Fermi-level           -0.3290002 Eh           -8.9526 eV

     #   Z          covCN         q      C6AA      α(0)
     1   6 C        2.831     0.124    25.278     8.239
     2   1 H        0.926     0.054     2.276     2.359
     3   1 H        0.926     0.046     2.366     2.405
     4   1 H        0.860     0.179     1.219     1.730
     5   6 C        2.982     0.007    27.858     8.658
     6   1 H        0.926     0.037     2.492     2.469
     7   6 C        2.837     0.090    25.995     8.355
     8   7 N        1.934    -0.141    24.820     7.387
     9   7 N        1.842    -0.232    26.921     7.689
    10   6 C        3.086     0.128    25.098     8.212
    11   6 C        3.056    -0.059    29.402     8.892
    12   7 N        1.844    -0.247    27.288     7.742
    13   1 H        0.925     0.038     2.477     2.461
    14   7 N        1.836    -0.200    26.160     7.580
    15   1 H        0.926     0.041     2.435     2.440
    16   6 C        2.902     0.063    26.598     8.456
    17   1 H        0.925     0.039     2.463     2.454
    18   1 H        0.925     0.042     2.427     2.436
    19   8 O        1.713    -0.193    17.217     5.602
    20   6 C        2.966     0.087    26.071     8.375
    21   7 N        1.833    -0.208    26.346     7.606
    22   6 C        2.840     0.113    25.506     8.277
    23   6 C        2.912    -0.047    29.163     8.855
    24   6 C        2.960     0.096    25.860     8.341
    25   6 C        2.922     0.077    26.281     8.407
    26   6 C        2.919    -0.025    28.620     8.773
    27   1 H        0.925     0.043     2.409     2.427
    28   6 C        2.940     0.082    26.166     8.389
    29   6 C        2.907    -0.045    29.107     8.846
    30   8 O        1.727    -0.192    17.196     5.599
    31   6 C        2.912     0.065    26.535     8.447
    32   6 C        2.972     0.093    25.941     8.354
    33   6 C        3.109     0.020    27.422     8.579
    34   6 C        2.947     0.171    24.321     8.089
    35   1 H        0.926     0.039     2.463     2.454
    36   6 C        3.019    -0.059    29.448     8.901
    37   6 C        3.051     0.079    26.201     8.395
    38   1 H        0.926     0.042     2.420     2.433
    39   6 C        3.051    -0.051    29.219     8.865
    40   6 C        2.899    -0.070    29.739     8.941
    41   6 C        2.767     0.085    26.082     8.364
    42   7 N        1.854    -0.237    27.052     7.709
    43   1 H        0.925     0.044     2.390     2.418
    44   6 C        2.924     0.159    24.565     8.128
    45   8 O        1.715    -0.192    17.202     5.600
    46   6 C        3.042     0.001    27.976     8.675
    47   1 H        0.926     0.046     2.365     2.405
    48   7 N        1.854    -0.215    26.527     7.634
    49   6 C        2.887     0.064    26.561     8.449
    50   6 C        2.980    -0.038    28.931     8.823
    51   6 C        2.912    -0.038    28.957     8.824
    52   6 C        2.977    -0.026    28.657     8.781
    53   6 C        2.989     0.010    27.796     8.648
    54   6 C        2.918    -0.017    28.437     8.745
    55   1 H        0.926     0.038     2.474     2.459
    56   1 H        0.926     0.051     2.311     2.377
    57   6 C        2.914     0.073    26.366     8.420
    58   6 C        2.905    -0.066    29.634     8.926
    59   1 H        0.926     0.069     2.096     2.264
    60   7 N        1.857    -0.217    26.569     7.640
    61   6 C        2.901     0.051    26.864     8.498
    62   1 H        0.925     0.044     2.396     2.421
    63   7 N        1.944    -0.084    23.617     7.206
    64   6 C        2.912     0.058    26.693     8.472
    65   1 H        0.925     0.050     2.316     2.380
    66   1 H        0.926     0.043     2.411     2.428
    67   6 C        2.981    -0.009    28.247     8.718
    68   1 H        0.926     0.070     2.085     2.258
    69   1 H        0.927     0.070     2.087     2.259
    70   1 H        0.925     0.040     2.443     2.444
    71   1 H        0.925     0.051     2.305     2.374
    72   6 C        2.936    -0.007    28.187     8.707
    73   6 C        2.957     0.092    25.964     8.358
    74   7 N        2.812    -0.067    22.531     7.050
    75   6 C        2.999    -0.057    29.394     8.894
    76   6 C        2.888    -0.066    29.647     8.927

 Mol. C6AA /au·bohr⁶  :      94191.639101
 Mol. C8AA /au·bohr⁸  :    2368248.390188
 Mol. α(0) /au        :        489.606166


Wiberg/Mayer (AO) data.
largest (>0.10) Wiberg bond orders for each atom

 ---------------------------------------------------------------------------
     #   Z sym  total        # sym  WBO       # sym  WBO       # sym  WBO
 ---------------------------------------------------------------------------
     1   6 C    3.911 --    40 C    1.558    45 O    1.083    24 C    1.012
     2   1 H    0.997 --    39 C    0.973
     3   1 H    0.997 --    58 C    0.959
     4   1 H    0.968 --    74 N    0.938
     5   6 C    3.986 --    72 C    1.389    31 C    1.368    73 C    1.039
                            64 C    0.109
     6   1 H    0.999 --    29 C    0.967
     7   6 C    3.888 --    22 C    1.356    73 C    1.157    45 O    1.067
     8   7 N    3.095 --    63 N    1.446    44 C    1.342    57 C    0.106
     9   7 N    3.065 --    49 C    1.595    28 C    1.226
    10   6 C    3.907 --    36 C    1.375    58 C    1.290    30 O    1.071
    11   6 C    3.977 --    46 C    1.486    39 C    1.397    35 H    0.974
    12   7 N    3.081 --    57 C    1.536    44 C    1.280
    13   1 H    0.998 --    26 C    0.964
    14   7 N    3.079 --    31 C    1.454    64 C    1.438
    15   1 H    0.998 --    46 C    0.970
    16   6 C    3.961 --    21 N    1.603    20 C    1.199    68 H    0.958
                            29 C    0.124
    17   1 H    0.998 --    64 C    0.964
    18   1 H    0.997 --    57 C    0.956
    19   8 O    2.432 --    41 C    1.099    22 C    1.076
    20   6 C    3.978 --    48 N    1.382    16 C    1.199    53 C    1.190
    21   7 N    3.058 --    16 C    1.603    61 C    1.286
    22   6 C    3.911 --     7 C    1.356    50 C    1.187    19 O    1.076
    23   6 C    3.973 --    54 C    1.617    24 C    1.215    38 H    0.967
    24   6 C    3.960 --    60 N    1.544    23 C    1.215     1 C    1.012
    25   6 C    3.954 --    63 N    1.377    57 C    1.264    52 C    1.096
    26   6 C    3.985 --    67 C    1.397    53 C    1.358    13 H    0.964
                            48 N    0.117
    27   1 H    0.997 --    40 C    0.960
    28   6 C    3.974 --    58 C    1.315    52 C    1.242     9 N    1.226
    29   6 C    3.984 --    61 C    1.577    53 C    1.249     6 H    0.967
                            16 C    0.124
    30   8 O    2.418 --    37 C    1.150    10 C    1.071
    31   6 C    3.970 --    14 N    1.454     5 C    1.368    59 H    0.959
                            51 C    0.111
    32   6 C    3.970 --    52 C    1.272    50 C    1.255    42 N    1.242
    33   6 C    3.944 --    39 C    1.414    74 N    1.187    44 C    1.132
                            46 C    0.110
    34   6 C    3.973 --    48 N    1.383    60 N    1.247    67 C    1.154
    35   1 H    0.998 --    11 C    0.974
    36   6 C    3.913 --    10 C    1.375    75 C    1.369    69 H    0.968
    37   6 C    3.840 --    75 C    1.530    30 O    1.150    56 H    0.966
    38   1 H    0.998 --    23 C    0.967
    39   6 C    3.975 --    33 C    1.414    11 C    1.397     2 H    0.973
    40   6 C    3.954 --     1 C    1.558    76 C    1.230    27 H    0.960
    41   6 C    3.886 --    76 C    1.619    19 O    1.099    71 H    0.953
    42   7 N    3.058 --    73 C    1.544    32 C    1.242
    43   1 H    0.997 --    76 C    0.962
    44   6 C    3.957 --     8 N    1.342    12 N    1.280    33 C    1.132
    45   8 O    2.420 --     1 C    1.083     7 C    1.067
    46   6 C    3.927 --    11 C    1.486    74 N    1.280    15 H    0.970
                            33 C    0.110
    47   1 H    0.998 --    72 C    0.967
    48   7 N    3.073 --    34 C    1.383    20 C    1.382    26 C    0.117
    49   6 C    3.964 --     9 N    1.595    50 C    1.242    65 H    0.957
    50   6 C    3.951 --    32 C    1.255    49 C    1.242    22 C    1.187
    51   6 C    3.990 --    72 C    1.454    64 C    1.417    55 H    0.969
                            31 C    0.111
    52   6 C    3.942 --    32 C    1.272    28 C    1.242    25 C    1.096
    53   6 C    3.985 --    26 C    1.358    29 C    1.249    20 C    1.190
    54   6 C    3.979 --    23 C    1.617    67 C    1.233    70 H    0.965
    55   1 H    0.998 --    51 C    0.969
    56   1 H    0.997 --    37 C    0.966
    57   6 C    3.969 --    12 N    1.536    25 C    1.264    18 H    0.956
                             8 N    0.106
    58   6 C    3.891 --    28 C    1.315    10 C    1.290     3 H    0.959
    59   1 H    0.995 --    31 C    0.959
    60   7 N    3.065 --    24 C    1.544    34 C    1.247
    61   6 C    3.967 --    29 C    1.577    21 N    1.286    62 H    0.964
    62   1 H    0.998 --    61 C    0.964
    63   7 N    3.105 --     8 N    1.446    25 C    1.377
    64   6 C    3.976 --    14 N    1.438    51 C    1.417    17 H    0.964
                             5 C    0.109
    65   1 H    0.997 --    49 C    0.957
    66   1 H    0.998 --    75 C    0.974
    67   6 C    3.986 --    26 C    1.397    54 C    1.233    34 C    1.154
    68   1 H    0.995 --    16 C    0.958
    69   1 H    0.995 --    36 C    0.968
    70   1 H    0.998 --    54 C    0.965
    71   1 H    0.996 --    41 C    0.953
    72   6 C    3.986 --    51 C    1.454     5 C    1.389    47 H    0.967
    73   6 C    3.972 --    42 N    1.544     7 C    1.157     5 C    1.039
    74   7 N    3.602 --    46 C    1.280    33 C    1.187     4 H    0.938
    75   6 C    3.980 --    37 C    1.530    36 C    1.369    66 H    0.974
    76   6 C    3.968 --    41 C    1.619    40 C    1.230    43 H    0.962
 ---------------------------------------------------------------------------

Topologies differ in bond orders
Writing corrected topology to xtbtopo.sdf

molecular dipole:
                 x           y           z       tot (Debye)
 q only:       -1.623      -0.652      -0.065
   full:       -2.935      -1.625       0.869       8.809
molecular quadrupole (traceless):
                xx          xy          yy          xz          yz          zz
 q only:      -20.271     -15.206       2.668       9.471     -10.174      17.603
  q+dip:      -38.882     -18.637      19.073      16.055     -18.824      19.809
   full:      -41.110     -13.351      21.391      19.726     -19.356      19.719

           -------------------------------------------------
          |                Geometry Summary                 |
           -------------------------------------------------

      molecular mass/u    :      691.6773201
   center of mass at/Å    :        0.0512191       0.1063253       0.0513128
  moments of inertia/u·Å² :        0.6351294E+04   0.1871456E+05   0.2415129E+05
rotational constants/cm⁻¹ :        0.2654205E-02   0.9007762E-03   0.6980013E-03

 * 79 selected distances

     #   Z          #   Z                                           value/Å
    16   6 C       20   6 C                                       1.4252992
    16   6 C       21   7 N                                       1.2966165
     7   6 C       22   6 C                                       1.3952259
    19   8 O       22   6 C                                       1.3460290
    23   6 C       24   6 C                                       1.4256010
    13   1 H       26   6 C                                       1.0830193
     9   7 N       28   6 C                                       1.3600341
     6   1 H       29   6 C                                       1.0803293
    10   6 C       30   8 O                                       1.3648602
     5   6 C       31   6 C                                       1.3974363
    14   7 N       31   6 C                                       1.3174504
    11   6 C       35   1 H                                       1.0717015
    10   6 C       36   6 C                                       1.3932754
    30   8 O       37   6 C                                       1.3399788
    23   6 C       38   1 H                                       1.0790144
     2   1 H       39   6 C                                       1.0705701
    11   6 C       39   6 C                                       1.3978355
    33   6 C       39   6 C                                       1.3866082
     1   6 C       40   6 C                                       1.3568854
    27   1 H       40   6 C                                       1.0814200
    19   8 O       41   6 C                                       1.3336356
    32   6 C       42   7 N                                       1.3475981
     8   7 N       44   6 C                                       1.3354078
    12   7 N       44   6 C                                       1.3503404
    33   6 C       44   6 C                                       1.4288605
     1   6 C       45   8 O                                       1.3384148
     7   6 C       45   8 O                                       1.3459795
    11   6 C       46   6 C                                       1.3778331
    15   1 H       46   6 C                                       1.0725355
    20   6 C       48   7 N                                       1.3251500
    34   6 C       48   7 N                                       1.3222659
     9   7 N       49   6 C                                       1.2933284
    32   6 C       50   6 C                                       1.4113897
    49   6 C       50   6 C                                       1.4165413
    28   6 C       52   6 C                                       1.4233977
    32   6 C       52   6 C                                       1.4106179
    20   6 C       53   6 C                                       1.4334991 (max)
    26   6 C       53   6 C                                       1.3945904
    29   6 C       53   6 C                                       1.4158317
    23   6 C       54   6 C                                       1.3590611
    51   6 C       55   1 H                                       1.0792700
    37   6 C       56   1 H                                       1.0724745
    12   7 N       57   6 C                                       1.3053535
    18   1 H       57   6 C                                       1.0831715
    25   6 C       57   6 C                                       1.4134310
     3   1 H       58   6 C                                       1.0797382
    10   6 C       58   6 C                                       1.4005398
    28   6 C       58   6 C                                       1.4022868
    31   6 C       59   1 H                                       1.0794956
    24   6 C       60   7 N                                       1.3009226
    34   6 C       60   7 N                                       1.3477232
    21   7 N       61   6 C                                       1.3496808
    29   6 C       61   6 C                                       1.3638481
    61   6 C       62   1 H                                       1.0817473
     8   7 N       63   7 N                                       1.2805348
    25   6 C       63   7 N                                       1.3365554
    14   7 N       64   6 C                                       1.3202667
    17   1 H       64   6 C                                       1.0828315
    51   6 C       64   6 C                                       1.3875746
    49   6 C       65   1 H                                       1.0821481
    26   6 C       67   6 C                                       1.3881463
    54   6 C       67   6 C                                       1.4184333
    16   6 C       68   1 H                                       1.0807415
    36   6 C       69   1 H                                       1.0685415
    54   6 C       70   1 H                                       1.0821695
    41   6 C       71   1 H                                       1.0849623
     5   6 C       72   6 C                                       1.3942358
    47   1 H       72   6 C                                       1.0797506
    51   6 C       72   6 C                                       1.3823694
    42   7 N       73   6 C                                       1.2976484
     4   1 H       74   7 N                                       1.0071236 (min)
    33   6 C       74   7 N                                       1.3669494
    46   6 C       74   7 N                                       1.3472458
    36   6 C       75   6 C                                       1.4015030
    37   6 C       75   6 C                                       1.3686576
    66   1 H       75   6 C                                       1.0710928
Note: The following floating-point exceptions are signalling: IEEE_UNDERFLOW_FLAG IEEE_DENORMAL
normal termination of xtb
    40   6 C       76   6 C                                       1.4158504
    41   6 C       76   6 C                                       1.3479346
    43   1 H       76   6 C                                       1.0814252

 * 6 distinct bonds (by element types)

   Z      Z             #   av. dist./Å        max./Å        min./Å
   1 H    6 C          22     1.0785523     1.0849623     1.0685415
   6 C    6 C          31     1.3978903     1.4334991     1.3479346
   1 H    7 N           1     1.0071236     1.0071236     1.0071236
   6 C    7 N          18     1.3289187     1.3669494     1.2933284
   7 N    7 N           1     1.2805348     1.2805348     1.2805348
   6 C    8 O           6     1.3448163     1.3648602     1.3336356


optimized geometry written to: xtbopt.sdf


           -------------------------------------------------
          | TOTAL ENERGY             -138.719661595023 Eh   |
          | GRADIENT NORM               0.000655144097 Eh/α |
          | HOMO-LUMO GAP               0.372574035869 eV   |
           -------------------------------------------------

------------------------------------------------------------------------
 * finished run on 2026/08/20 at 06:26:06.639     
------------------------------------------------------------------------
 total:
 * wall-time:     0 d,  0 h,  0 min,  8.239 sec
 *  cpu-time:     0 d,  0 h,  0 min,  8.207 sec
 * ratio c/w:     0.996 speedup
 SCF:
 * wall-time:     0 d,  0 h,  0 min,  0.206 sec
 *  cpu-time:     0 d,  0 h,  0 min,  0.206 sec
 * ratio c/w:     1.000 speedup
 ANC optimizer:
 * wall-time:     0 d,  0 h,  0 min,  7.993 sec
 *  cpu-time:     0 d,  0 h,  0 min,  7.978 sec
 * ratio c/w:     0.998 speedup

