      -----------------------------------------------------------      
     |                   =====================                   |     
     |                           x T B                           |     
     |                   =====================                   |     
     |                         S. Grimme                         |     
     |          Mulliken Center for Theoretical Chemistry        |     
     |                    University of Bonn                     |     
      -----------------------------------------------------------      

   * xtb version 6.7.1 (edcfbbe) compiled by 'conda@5dfe00f5fb80' on 2026-06-10

   xtb is free software: you can redistribute it and/or modify it under
   the terms of the GNU Lesser General Public License as published by
   the Free Software Foundation, either version 3 of the License, or
   (at your option) any later version.
   
   xtb is distributed in the hope that it will be useful,
   but WITHOUT ANY WARRANTY; without even the implied warranty of
   MERCHANTABILITY or FITNESS FOR A PARTICULAR PURPOSE.  See the
   GNU Lesser General Public License for more details.
   
   Cite this work as:
   * C. Bannwarth, E. Caldeweyher, S. Ehlert, A. Hansen, P. Pracht,
     J. Seibert, S. Spicher, S. Grimme, WIREs Comput. Mol. Sci., 2020, 11,
     e01493. DOI: 10.1002/wcms.1493
   
   for GFN2-xTB:
   * C. Bannwarth, S. Ehlert and S. Grimme., J. Chem. Theory Comput., 2019,
     15, 1652-1671. DOI: 10.1021/acs.jctc.8b01176
   for GFN1-xTB:
   * S. Grimme, C. Bannwarth, P. Shushkov, J. Chem. Theory Comput., 2017,
     13, 1989-2009. DOI: 10.1021/acs.jctc.7b00118
   for GFN0-xTB:
   * P. Pracht, E. Caldeweyher, S. Ehlert, S. Grimme, ChemRxiv, 2019, preprint.
     DOI: 10.26434/chemrxiv.8326202.v1
   for GFN-FF:
   * S. Spicher and S. Grimme, Angew. Chem. Int. Ed., 2020, 59, 15665-15673.
     DOI: 10.1002/anie.202004239
   
   for ALPB and GBSA implicit solvation:
   * S. Ehlert, M. Stahn, S. Spicher, S. Grimme, J. Chem. Theory Comput.,
     2021, 17, 4250-4261. DOI: 10.1021/acs.jctc.1c00471
   
   for ddCOSMO and CPCM-X implicit solvation:
   * M. Stahn, S. Ehlert, S. Grimme, J. Phys. Chem. A,
     2023, XX, XXXX-XXXX. DOI: 10.1021/acs.jpca.3c04382
   
   for DFT-D4:
   * E. Caldeweyher, C. Bannwarth and S. Grimme, J. Chem. Phys., 2017,
     147, 034112. DOI: 10.1063/1.4993215
   * E. Caldeweyher, S. Ehlert, A. Hansen, H. Neugebauer, S. Spicher,
     C. Bannwarth and S. Grimme, J. Chem. Phys., 2019, 150, 154122.
     DOI: 10.1063/1.5090222
   * E. Caldeweyher, J.-M. Mewes, S. Ehlert and S. Grimme, Phys. Chem. Chem. Phys.
     2020, 22, 8499-8512. DOI: 10.1039/D0CP00502A
   
   for sTDA-xTB:
   * S. Grimme and C. Bannwarth, J. Chem. Phys., 2016, 145, 054103.
     DOI: 10.1063/1.4959605
   
   in the mass-spec context:
   * V. Asgeirsson, C. Bauer and S. Grimme, Chem. Sci., 2017, 8, 4879.
     DOI: 10.1039/c7sc00601b
   * J. Koopman and S. Grimme, ACS Omega 2019, 4, 12, 15120-15133.
     DOI: 10.1021/acsomega.9b02011
   
   for metadynamics refer to:
   * S. Grimme, J. Chem. Theory Comput., 2019, 155, 2847-2862
     DOI: 10.1021/acs.jctc.9b00143
   
   for SPH calculations refer to:
   * S. Spicher and S. Grimme, J. Chem. Theory Comput., 2021, 17, 1701-1714
     DOI: 10.1021/acs.jctc.0c01306
   
   for ONIOM refer to:
   * C. Plett, A. Katbashev, S. Ehlert, S. Grimme, M. Bursch,
     Phys. Chem. Chem. Phys., 2023, 25, 17860-17868. DOI: 10.1039/D3CP02178E
   
   for DIPRO refer to:
   * J. Kohn, N. Gildemeister, S. Grimme, D. Fazzi, A. Hansen,
     J. Chem. Phys., 2023, just accepted.
   
   for PTB refer to:
   * S. Grimme, M. Mueller, A. Hansen, J. Chem. Phys., 2023, 158, 124111.
     DOI: 10.1063/5.0137838
   
   with help from (in alphabetical order)
   P. Atkinson, C. Bannwarth, F. Bohle, G. Brandenburg, E. Caldeweyher
   M. Checinski, S. Dohm, S. Ehlert, S. Ehrlich, I. Gerasimov, C. Hölzer
   A. Katbashev, J. Kohn, J. Koopman, C. Lavigne, S. Lehtola, F. März, M. Müller,
   F. Musil, H. Neugebauer, J. Pisarek, C. Plett, P. Pracht, F. Pultar,
   J. Seibert, P. Shushkov, S. Spicher, M. Stahn, M. Steiner, T. Strunk,
   J. Stückrath, T. Rose, and J. Unsleber
   
 * started run on 2026/08/20 at 06:25:58.400     
   ID    Z sym.   atoms
    1    1 H      1, 3, 5, 7, 8, 10, 18, 25, 29, 35, 39, 40, 44-46, 48, 49,
                  51, 52, 55-58, 62, 64, 69-71, 75, 77, 84-86, 88, 89
    2    6 C      2, 6, 9, 12, 13, 15, 17, 19-24, 26-28, 30-34, 36-38, 41-43,
                  47, 53, 54, 59-61, 63, 68, 72, 78-83, 87, 90, 91
    3    7 N      4, 11, 14, 16, 50, 66, 67, 73, 76
    4    8 O      65, 74

           -------------------------------------------------
          |                Calculation Setup                |
           -------------------------------------------------

          program call               : xtb 00025.sdf --opt loose --cycles 500
          coordinate file            : 00025.sdf
          omp threads                :                     1


           -------------------------------------------------
          |                 G F N 2 - x T B                 |
           -------------------------------------------------

        Reference                      10.1021/acs.jctc.8b01176
      * Hamiltonian:
        H0-scaling (s, p, d)           1.850000    2.230000    2.230000
        zeta-weighting                 0.500000
      * Dispersion:
        s8                             2.700000
        a1                             0.520000
        a2                             5.000000
        s9                             5.000000
      * Repulsion:
        kExp                           1.500000    1.000000
        rExp                           1.000000
      * Coulomb:
        alpha                          2.000000
        third order                    shell-resolved
        anisotropic                    true
        a3                             3.000000
        a5                             4.000000
        cn-shift                       1.200000
        cn-exp                         4.000000
        max-rad                        5.000000


          ...................................................
          :                      SETUP                      :
          :.................................................:
          :  # basis functions                 259          :
          :  # atomic orbitals                 259          :
          :  # shells                          147          :
          :  # electrons                       272          :
          :  max. iterations                   250          :
          :  Hamiltonian                  GFN2-xTB          :
          :  restarted?                      false          :
          :  GBSA solvation                  false          :
          :  PC potential                    false          :
          :  electronic temp.          300.0000000     K    :
          :  accuracy                    1.0000000          :
          :  -> integral cutoff          0.2500000E+02      :
          :  -> integral neglect         0.1000000E-07      :
          :  -> SCF convergence          0.1000000E-05 Eh   :
          :  -> wf. convergence          0.1000000E-03 e    :
          :  Broyden damping             0.4000000          :
          :  net charge                          0          :
          :  unpaired electrons                  0          :
          ...................................................

 iter      E             dE          RMSdq      gap      omega  full diag
   1   -149.4008738 -0.149401E+03  0.452E+00    1.43       0.0  T
   2   -149.5189089 -0.118035E+00  0.320E+00    0.50       1.0  T
   3   -149.4557984  0.631105E-01  0.233E+00    1.14       1.0  T
   4   -149.6054151 -0.149617E+00  0.116E+00    0.73       1.0  T
   5   -149.6785386 -0.731236E-01  0.578E-01    0.65       1.0  T
   6   -149.6989054 -0.203667E-01  0.177E-01    0.71       1.0  T
   7   -149.6999482 -0.104287E-02  0.890E-02    0.71       1.0  T
   8   -149.6999945 -0.462938E-04  0.527E-02    0.72       1.0  T
   9   -149.7001735 -0.178947E-03  0.201E-02    0.72       1.0  T
  10   -149.7001986 -0.251633E-04  0.782E-03    0.71       1.3  T
  11   -149.7002016 -0.301766E-05  0.248E-03    0.72       4.2  T
  12   -149.7002019 -0.212502E-06  0.165E-03    0.72       6.3  T
  13   -149.7002020 -0.106549E-06  0.887E-04    0.72      11.8  T
  14   -149.7002020 -0.297811E-07  0.351E-04    0.72      29.9  T

   *** convergence criteria satisfied after 14 iterations ***

         #    Occupation            Energy/Eh            Energy/eV
      -------------------------------------------------------------
         1        2.0000           -0.7257537             -19.7488
       ...           ...                  ...                  ...
       130        2.0000           -0.3613298              -9.8323
       131        2.0000           -0.3571287              -9.7180
       132        2.0000           -0.3554998              -9.6736
       133        2.0000           -0.3550575              -9.6616
       134        2.0000           -0.3424824              -9.3194
       135        2.0000           -0.3261381              -8.8747
       136        2.0000           -0.3191703              -8.6851 (HOMO)
       137        0.0000           -0.2928826              -7.9697 (LUMO)
       138                         -0.2605809              -7.0908
       139                         -0.2597076              -7.0670
       140                         -0.2538865              -6.9086
       141                         -0.2492868              -6.7834
       ...                                ...                  ...
       259                          0.6098294              16.5943
      -------------------------------------------------------------
                  HL-Gap            0.0262878 Eh            0.7153 eV
             Fermi-level           -0.3060261 Eh           -8.3274 eV

 SCC (total)                   0 d,  0 h,  0 min,  0.196 sec
 SCC setup                      ...        0 min,  0.001 sec (  0.421%)
 Dispersion                     ...        0 min,  0.002 sec (  1.244%)
 classical contributions        ...        0 min,  0.000 sec (  0.176%)
 integral evaluation            ...        0 min,  0.018 sec (  9.157%)
 iterations                     ...        0 min,  0.109 sec ( 55.379%)
 molecular gradient             ...        0 min,  0.065 sec ( 33.112%)
 printout                       ...        0 min,  0.001 sec (  0.503%)

         :::::::::::::::::::::::::::::::::::::::::::::::::::::
         ::                     SUMMARY                     ::
         :::::::::::::::::::::::::::::::::::::::::::::::::::::
         :: total energy            -147.965580687404 Eh    ::
         :: gradient norm              0.353952296013 Eh/a0 ::
         :: HOMO-LUMO gap              0.715326131150 eV    ::
         ::.................................................::
         :: SCC energy              -149.700780635298 Eh    ::
         :: -> isotropic ES            0.077388755642 Eh    ::
         :: -> anisotropic ES          0.024355916974 Eh    ::
         :: -> anisotropic XC          0.097803090003 Eh    ::
         :: -> dispersion             -0.109448132908 Eh    ::
         :: repulsion energy           1.735199947894 Eh    ::
         :: add. restraining           0.000000000000 Eh    ::
         :: total charge               0.000000001282 e     ::
         :::::::::::::::::::::::::::::::::::::::::::::::::::::

      ----------------------------------------------------------- 
     |                   =====================                   |
     |                        A N C O P T                        |
     |                   =====================                   |
     |               Approximate Normal Coordinate               |
     |                Rational Function Optimizer                |
      ----------------------------------------------------------- 
      ----------------------------------------------------------- 
     |                   =====================                   |
     |                        A N C O P T                        |
     |                   =====================                   |
     |               Approximate Normal Coordinate               |
     |                Rational Function Optimizer                |
      ----------------------------------------------------------- 

          ...................................................
          :                      SETUP                      :
          :.................................................:
          :   optimization level             loose          :
          :   max. optcycles                   500          :
          :   ANC micro-cycles                  20          :
          :   degrees of freedom               267          :
          :.................................................:
          :   RF solver                   davidson          :
          :   write xtbopt.log                true          :
          :   linear?                        false          :
          :   energy convergence         0.5000000E-04 Eh   :
          :   grad. convergence          0.4000000E-02 Eh/α :
          :   maxmium RF displ.          1.0000000          :
          :   Hlow (freq-cutoff)         0.1000000E-01      :
          :   Hmax (freq-cutoff)         5.0000000          :
          :   S6 in model hess.         20.0000000          :
          ...................................................

generating ANC from exact Hessian ...
Using Lindh-Hessian (1995)
 Shifting diagonal of input Hessian by    9.9907333345373630E-003
 Lowest  eigenvalues of input Hessian
    0.000000    0.000000    0.000000    0.000000    0.000000    0.000000
    0.010000    0.010018    0.010029    0.010041    0.010064    0.010106
    0.010218    0.010268    0.010386    0.010565    0.010640    0.010767
 Highest eigenvalues
    1.820022    1.863644    1.889929    1.892108    1.927286    2.053013


........................................................................
.............................. CYCLE    1 ..............................
........................................................................

 iter      E             dE          RMSdq      gap      omega  full diag
   1   -149.7002020 -0.149700E+03  0.134E-04    0.72       0.0  T
   2   -149.7002020  0.776595E-09  0.148E-04    0.72      71.0  T
   3   -149.7002020 -0.175874E-08  0.672E-05    0.72     156.0  T
     SCC iter.                  ...        0 min,  0.025 sec
     gradient                   ...        0 min,  0.064 sec
 * total energy  :  -147.9655807 Eh     change       -0.7373046E-08 Eh
   gradient norm :     0.3539533 Eh/α   predicted     0.0000000E+00 (-100.00%)
   displ. norm   :     0.7419076 α      lambda       -0.2114344E+00
   maximum displ.:     0.1918764 α      in ANC's #62, #51, #134, ...

........................................................................
.............................. CYCLE    2 ..............................
........................................................................

 iter      E             dE          RMSdq      gap      omega  full diag
   1   -149.9782432 -0.149978E+03  0.367E-01    0.88       0.0  T
   2   -149.9788683 -0.625073E-03  0.242E-01    0.88       1.0  T
   3   -149.9778445  0.102374E-02  0.222E-01    0.94       1.0  T
   4   -149.9793233 -0.147879E-02  0.112E-01    0.95       1.0  T
   5   -149.9802652 -0.941913E-03  0.294E-02    0.95       1.0  T
   6   -149.9803236 -0.583954E-04  0.959E-03    0.95       1.1  T
   7   -149.9803280 -0.434828E-05  0.536E-03    0.94       2.0  T
   8   -149.9803289 -0.911808E-06  0.190E-03    0.94       5.5  T
   9   -149.9803291 -0.193328E-06  0.783E-04    0.94      13.4  T
  10   -149.9803291 -0.283799E-07  0.362E-04    0.94      28.9  T
     SCC iter.                  ...        0 min,  0.076 sec
     gradient                   ...        0 min,  0.065 sec
 * total energy  :  -148.1462127 Eh     change       -0.1806320E+00 Eh
   gradient norm :     0.2268798 Eh/α   predicted    -0.1639524E+00 (  -9.23%)
   displ. norm   :     0.8089431 α      lambda       -0.1599621E+00
   maximum displ.:     0.2426544 α      in ANC's #62, #51, #70, ...

........................................................................
.............................. CYCLE    3 ..............................
........................................................................

 iter      E             dE          RMSdq      gap      omega  full diag
   1   -150.2361480 -0.150236E+03  0.357E-01    1.12       0.0  T
   2   -150.2379417 -0.179378E-02  0.227E-01    1.12       1.0  T
   3   -150.2382498 -0.308020E-03  0.139E-01    1.19       1.0  T
   4   -150.2386965 -0.446698E-03  0.449E-02    1.20       1.0  T
   5   -150.2387874 -0.909369E-04  0.291E-02    1.20       1.0  T
   6   -150.2388452 -0.577824E-04  0.702E-03    1.20       1.5  T
   7   -150.2388469 -0.173816E-05  0.498E-03    1.20       2.1  T
   8   -150.2388480 -0.109549E-05  0.155E-03    1.20       6.8  T
   9   -150.2388481 -0.104516E-06  0.682E-04    1.19      15.4  T
  10   -150.2388481 -0.187329E-07  0.304E-04    1.19      34.5  T
     SCC iter.                  ...        0 min,  0.076 sec
     gradient                   ...        0 min,  0.065 sec
 * total energy  :  -148.2754926 Eh     change       -0.1292800E+00 Eh
   gradient norm :     0.1297840 Eh/α   predicted    -0.1323198E+00 (   2.35%)
   displ. norm   :     0.8512381 α      lambda       -0.1031662E+00
   maximum displ.:     0.2888542 α      in ANC's #62, #34, #51, ...

........................................................................
.............................. CYCLE    4 ..............................
........................................................................

 iter      E             dE          RMSdq      gap      omega  full diag
   1   -150.4117249 -0.150412E+03  0.294E-01    1.41       0.0  T
   2   -150.4125030 -0.778095E-03  0.185E-01    1.37       1.0  T
   3   -150.4123130  0.189957E-03  0.110E-01    1.43       1.0  T
   4   -150.4128636 -0.550585E-03  0.269E-02    1.42       1.0  T
   5   -150.4129137 -0.500765E-04  0.111E-02    1.42       1.0  T
   6   -150.4129211 -0.743358E-05  0.410E-03    1.42       2.6  T
   7   -150.4129214 -0.240160E-06  0.318E-03    1.42       3.3  T
   8   -150.4129219 -0.500709E-06  0.865E-04    1.42      12.1  T
   9   -150.4129219 -0.265239E-07  0.402E-04    1.42      26.1  T
     SCC iter.                  ...        0 min,  0.068 sec
     gradient                   ...        0 min,  0.065 sec
 * total energy  :  -148.3655556 Eh     change       -0.9006298E-01 Eh
   gradient norm :     0.1014270 Eh/α   predicted    -0.8896072E-01 (  -1.22%)
   displ. norm   :     0.8692262 α      lambda       -0.8049940E-01
   maximum displ.:     0.2737515 α      in ANC's #62, #34, #44, ...

........................................................................
.............................. CYCLE    5 ..............................
........................................................................

 iter      E             dE          RMSdq      gap      omega  full diag
   1   -150.5525638 -0.150553E+03  0.246E-01    1.65       0.0  T
   2   -150.5530131 -0.449379E-03  0.157E-01    1.61       1.0  T
   3   -150.5527822  0.230931E-03  0.895E-02    1.65       1.0  T
   4   -150.5532568 -0.474597E-03  0.197E-02    1.64       1.0  T
   5   -150.5532850 -0.281946E-04  0.593E-03    1.64       1.8  T
   6   -150.5532869 -0.194070E-05  0.283E-03    1.64       3.7  T
   7   -150.5532872 -0.250934E-06  0.123E-03    1.64       8.6  T
   8   -150.5532872 -0.410334E-07  0.577E-04    1.64      18.2  T
   9   -150.5532872 -0.170203E-07  0.256E-04    1.64      40.9  T
     SCC iter.                  ...        0 min,  0.068 sec
     gradient                   ...        0 min,  0.065 sec
 * total energy  :  -148.4368863 Eh     change       -0.7133071E-01 Eh
   gradient norm :     0.0801664 Eh/α   predicted    -0.7066053E-01 (  -0.94%)
   displ. norm   :     0.8777924 α      lambda       -0.6359563E-01
   maximum displ.:     0.2983485 α      in ANC's #34, #35, #44, ...

........................................................................
.............................. CYCLE    6 ..............................
........................................................................

 iter      E             dE          RMSdq      gap      omega  full diag
   1   -150.6624411 -0.150662E+03  0.218E-01    1.88       0.0  T
   2   -150.6626947 -0.253574E-03  0.138E-01    1.83       1.0  T
   3   -150.6624268  0.267858E-03  0.736E-02    1.86       1.0  T
   4   -150.6628320 -0.405160E-03  0.143E-02    1.85       1.0  T
   5   -150.6628474 -0.154495E-04  0.421E-03    1.85       2.5  T
   6   -150.6628483 -0.817498E-06  0.222E-03    1.85       4.7  T
   7   -150.6628484 -0.174593E-06  0.776E-04    1.85      13.5  T
   8   -150.6628484 -0.187554E-07  0.339E-04    1.85      30.9  T
     SCC iter.                  ...        0 min,  0.061 sec
     gradient                   ...        0 min,  0.065 sec
 * total energy  :  -148.4931645 Eh     change       -0.5627820E-01 Eh
   gradient norm :     0.0633531 Eh/α   predicted    -0.5629865E-01 (   0.04%)
   displ. norm   :     0.8804847 α      lambda       -0.5002820E-01
   maximum displ.:     0.3281525 α      in ANC's #34, #35, #44, ...

........................................................................
.............................. CYCLE    7 ..............................
........................................................................

 iter      E             dE          RMSdq      gap      omega  full diag
   1   -150.7526612 -0.150753E+03  0.201E-01    2.02       0.0  T
   2   -150.7528379 -0.176736E-03  0.128E-01    1.97       1.0  T
   3   -150.7525730  0.264957E-03  0.641E-02    1.99       1.0  T
   4   -150.7529284 -0.355449E-03  0.134E-02    1.98       1.0  T
   5   -150.7529432 -0.147547E-04  0.390E-03    1.98       2.7  T
   6   -150.7529439 -0.697070E-06  0.195E-03    1.98       5.4  T
   7   -150.7529440 -0.978986E-07  0.768E-04    1.98      13.6  T
   8   -150.7529440 -0.222104E-07  0.315E-04    1.98      33.2  T
     SCC iter.                  ...        0 min,  0.061 sec
     gradient                   ...        0 min,  0.065 sec
 * total energy  :  -148.5370468 Eh     change       -0.4388229E-01 Eh
   gradient norm :     0.0524194 Eh/α   predicted    -0.4440637E-01 (   1.19%)
   displ. norm   :     0.8950492 α      lambda       -0.4118588E-01
   maximum displ.:     0.3343010 α      in ANC's #34, #35, #31, ...

........................................................................
.............................. CYCLE    8 ..............................
........................................................................

 iter      E             dE          RMSdq      gap      omega  full diag
   1   -150.8214768 -0.150821E+03  0.209E-01    2.08       0.0  T
   2   -150.8216609 -0.184149E-03  0.131E-01    2.05       1.0  T
   3   -150.8213676  0.293325E-03  0.646E-02    2.06       1.0  T
   4   -150.8217431 -0.375536E-03  0.152E-02    2.05       1.0  T
   5   -150.8217621 -0.189842E-04  0.392E-03    2.05       2.7  T
   6   -150.8217627 -0.601340E-06  0.222E-03    2.05       4.7  T
   7   -150.8217629 -0.137385E-06  0.737E-04    2.05      14.2  T
   8   -150.8217629 -0.191642E-07  0.336E-04    2.05      31.2  T
     SCC iter.                  ...        0 min,  0.061 sec
     gradient                   ...        0 min,  0.065 sec
 * total energy  :  -148.5708282 Eh     change       -0.3378140E-01 Eh
   gradient norm :     0.0574729 Eh/α   predicted    -0.3709021E-01 (   9.79%)
   displ. norm   :     0.8814627 α      lambda       -0.3615258E-01
   maximum displ.:     0.3198998 α      in ANC's #34, #32, #35, ...

........................................................................
.............................. CYCLE    9 ..............................
........................................................................

 iter      E             dE          RMSdq      gap      omega  full diag
   1   -150.8833958 -0.150883E+03  0.194E-01    2.13       0.0  T
   2   -150.8835326 -0.136806E-03  0.121E-01    2.10       1.0  T
   3   -150.8832732  0.259390E-03  0.639E-02    2.11       1.0  T
   4   -150.8836118 -0.338572E-03  0.119E-02    2.10       1.0  T
   5   -150.8836217 -0.992391E-05  0.468E-03    2.10       2.2  T
   6   -150.8836225 -0.758119E-06  0.218E-03    2.10       4.8  T
   7   -150.8836226 -0.128203E-06  0.778E-04    2.10      13.5  T
   8   -150.8836226 -0.238473E-07  0.294E-04    2.10      35.7  T
     SCC iter.                  ...        0 min,  0.061 sec
     gradient                   ...        0 min,  0.066 sec
 * total energy  :  -148.5970112 Eh     change       -0.2618301E-01 Eh
   gradient norm :     0.0712186 Eh/α   predicted    -0.3212114E-01 (  22.68%)
   displ. norm   :     0.8236985 α      lambda       -0.3107541E-01
   maximum displ.:     0.2905167 α      in ANC's #34, #28, #31, ...

........................................................................
.............................. CYCLE   10 ..............................
........................................................................

 iter      E             dE          RMSdq      gap      omega  full diag
   1   -150.9245834 -0.150925E+03  0.200E-01    2.18       0.0  T
   2   -150.9247047 -0.121269E-03  0.123E-01    2.16       1.0  T
   3   -150.9244393  0.265363E-03  0.642E-02    2.17       1.0  T
   4   -150.9247833 -0.344010E-03  0.107E-02    2.16       1.0  T
   5   -150.9247907 -0.733554E-05  0.393E-03    2.16       2.7  T
   6   -150.9247911 -0.440051E-06  0.233E-03    2.16       4.5  T
   7   -150.9247913 -0.190653E-06  0.617E-04    2.16      17.0  T
   8   -150.9247913 -0.146766E-07  0.303E-04    2.16      34.6  T
     SCC iter.                  ...        0 min,  0.061 sec
     gradient                   ...        0 min,  0.066 sec
 * total energy  :  -148.6187731 Eh     change       -0.2176183E-01 Eh
   gradient norm :     0.0443499 Eh/α   predicted    -0.2607974E-01 (  19.84%)
   displ. norm   :     0.8125978 α      lambda       -0.2296242E-01
   maximum displ.:     0.2545666 α      in ANC's #34, #31, #32, ...

........................................................................
.............................. CYCLE   11 ..............................
........................................................................

 iter      E             dE          RMSdq      gap      omega  full diag
   1   -150.9714034 -0.150971E+03  0.158E-01    2.22       0.0  T
   2   -150.9714970 -0.935797E-04  0.977E-02    2.22       1.0  T
   3   -150.9713526  0.144431E-03  0.575E-02    2.22       1.0  T
   4   -150.9715734 -0.220826E-03  0.879E-03    2.21       1.2  T
   5   -150.9715783 -0.489128E-05  0.423E-03    2.21       2.5  T
   6   -150.9715790 -0.692370E-06  0.166E-03    2.21       6.3  T
   7   -150.9715790 -0.447389E-07  0.616E-04    2.21      17.0  T
   8   -150.9715790 -0.137139E-07  0.233E-04    2.21      44.9  T
     SCC iter.                  ...        0 min,  0.061 sec
     gradient                   ...        0 min,  0.066 sec
 * total energy  :  -148.6375050 Eh     change       -0.1873192E-01 Eh
   gradient norm :     0.0364723 Eh/α   predicted    -0.1906244E-01 (   1.76%)
   displ. norm   :     0.8575884 α      lambda       -0.1877110E-01
   maximum displ.:     0.3028595 α      in ANC's #28, #32, #34, ...

........................................................................
.............................. CYCLE   12 ..............................
........................................................................

 iter      E             dE          RMSdq      gap      omega  full diag
   1   -150.9888087 -0.150989E+03  0.178E-01    2.26       0.0  T
   2   -150.9888812 -0.724884E-04  0.107E-01    2.23       1.0  T
   3   -150.9887154  0.165727E-03  0.524E-02    2.24       1.0  T
   4   -150.9889282 -0.212801E-03  0.742E-03    2.23       1.4  T
   5   -150.9889299 -0.171561E-05  0.369E-03    2.24       2.8  T
   6   -150.9889302 -0.235133E-06  0.196E-03    2.24       5.3  T
   7   -150.9889304 -0.189027E-06  0.440E-04    2.24      23.8  T
   8   -150.9889304 -0.640495E-08  0.306E-04    2.24      34.3  T
     SCC iter.                  ...        0 min,  0.061 sec
     gradient                   ...        0 min,  0.066 sec
 * total energy  :  -148.6499892 Eh     change       -0.1248422E-01 Eh
   gradient norm :     0.0490501 Eh/α   predicted    -0.1628823E-01 (  30.47%)
   displ. norm   :     0.7898936 α      lambda       -0.1833854E-01
   maximum displ.:     0.2585936 α      in ANC's #22, #26, #21, ...

........................................................................
.............................. CYCLE   13 ..............................
........................................................................

 iter      E             dE          RMSdq      gap      omega  full diag
   1   -151.0393307 -0.151039E+03  0.166E-01    2.23       0.0  T
   2   -151.0394078 -0.770998E-04  0.955E-02    2.23       1.0  T
   3   -151.0392275  0.180300E-03  0.704E-02    2.23       1.0  T
   4   -151.0394867 -0.259126E-03  0.847E-03    2.22       1.2  T
   5   -151.0394879 -0.119080E-05  0.693E-03    2.22       1.5  T
   6   -151.0394894 -0.154386E-05  0.233E-03    2.22       4.5  T
   7   -151.0394896 -0.146423E-06  0.642E-04    2.22      16.3  T
   8   -151.0394896 -0.111640E-07  0.268E-04    2.22      39.1  T
     SCC iter.                  ...        0 min,  0.061 sec
     gradient                   ...        0 min,  0.076 sec
 * total energy  :  -148.6613463 Eh     change       -0.1135715E-01 Eh
   gradient norm :     0.0415691 Eh/α   predicted    -0.1489029E-01 (  31.11%)
   displ. norm   :     0.7304340 α      lambda       -0.1213012E-01
   maximum displ.:     0.2412437 α      in ANC's #28, #27, #18, ...

........................................................................
.............................. CYCLE   14 ..............................
........................................................................

 iter      E             dE          RMSdq      gap      omega  full diag
   1   -151.0502952 -0.151050E+03  0.150E-01    2.25       0.0  T
   2   -151.0503663 -0.710741E-04  0.899E-02    2.26       1.0  T
   3   -151.0502596  0.106729E-03  0.440E-02    2.26       1.0  T
   4   -151.0504026 -0.143054E-03  0.926E-03    2.26       1.1  T
   5   -151.0504059 -0.327561E-05  0.364E-03    2.26       2.9  T
   6   -151.0504064 -0.465768E-06  0.208E-03    2.26       5.0  T
   7   -151.0504065 -0.140464E-06  0.504E-04    2.26      20.8  T
   8   -151.0504065 -0.455742E-08  0.241E-04    2.26      43.4  T
     SCC iter.                  ...        0 min,  0.061 sec
     gradient                   ...        0 min,  0.066 sec
 * total energy  :  -148.6692583 Eh     change       -0.7911925E-02 Eh
   gradient norm :     0.0359619 Eh/α   predicted    -0.9301011E-02 (  17.56%)
   displ. norm   :     0.7292460 α      lambda       -0.1051207E-01
   maximum displ.:     0.2331810 α      in ANC's #12, #28, #18, ...

........................................................................
.............................. CYCLE   15 ..............................
........................................................................

 iter      E             dE          RMSdq      gap      omega  full diag
   1   -151.0746695 -0.151075E+03  0.164E-01    2.22       0.0  T
   2   -151.0747471 -0.775841E-04  0.963E-02    2.19       1.0  T
   3   -151.0746316  0.115476E-03  0.463E-02    2.18       1.0  T
   4   -151.0747826 -0.150999E-03  0.103E-02    2.18       1.0  T
   5   -151.0747857 -0.304423E-05  0.433E-03    2.18       2.4  T
   6   -151.0747866 -0.896154E-06  0.204E-03    2.19       5.1  T
   7   -151.0747867 -0.117590E-06  0.595E-04    2.19      17.6  T
   8   -151.0747867 -0.663445E-08  0.233E-04    2.19      45.0  T
     SCC iter.                  ...        0 min,  0.061 sec
     gradient                   ...        0 min,  0.066 sec
 * total energy  :  -148.6744759 Eh     change       -0.5217608E-02 Eh
   gradient norm :     0.0487590 Eh/α   predicted    -0.8051198E-02 (  54.31%)
   displ. norm   :     0.6191869 α      lambda       -0.7755681E-02
   maximum displ.:     0.2146720 α      in ANC's #18, #12, #14, ...

........................................................................
.............................. CYCLE   16 ..............................
........................................................................

 iter      E             dE          RMSdq      gap      omega  full diag
   1   -151.0812597 -0.151081E+03  0.114E-01    2.23       0.0  T
   2   -151.0812916 -0.318803E-04  0.673E-02    2.24       1.0  T
   3   -151.0812184  0.731958E-04  0.402E-02    2.23       1.0  T
   4   -151.0813143 -0.959154E-04  0.519E-03    2.23       2.0  T
   5   -151.0813154 -0.111638E-05  0.295E-03    2.23       3.6  T
   6   -151.0813158 -0.331157E-06  0.114E-03    2.23       9.2  T
   7   -151.0813158 -0.286986E-07  0.327E-04    2.23      32.1  T
   8   -151.0813158 -0.403136E-08  0.143E-04    2.23      73.2  T
     SCC iter.                  ...        0 min,  0.061 sec
     gradient                   ...        0 min,  0.066 sec
 * total energy  :  -148.6798559 Eh     change       -0.5379973E-02 Eh
   gradient norm :     0.0220384 Eh/α   predicted    -0.5364583E-02 (  -0.29%)
   displ. norm   :     0.6817454 α      lambda       -0.5315704E-02
   maximum displ.:     0.2871304 α      in ANC's #12, #18, #14, ...

........................................................................
.............................. CYCLE   17 ..............................
........................................................................

 iter      E             dE          RMSdq      gap      omega  full diag
   1   -151.0985748 -0.151099E+03  0.113E-01    2.24       0.0  T
   2   -151.0986202 -0.453964E-04  0.659E-02    2.26       1.0  T
   3   -151.0985606  0.595675E-04  0.402E-02    2.25       1.0  T
   4   -151.0986426 -0.820340E-04  0.583E-03    2.26       1.8  T
   5   -151.0986444 -0.177054E-05  0.265E-03    2.26       4.0  T
   6   -151.0986447 -0.269871E-06  0.121E-03    2.26       8.6  T
   7   -151.0986447 -0.343471E-07  0.334E-04    2.26      31.4  T
   8   -151.0986447 -0.522724E-08  0.148E-04    2.26      71.0  T
     SCC iter.                  ...        0 min,  0.061 sec
     gradient                   ...        0 min,  0.077 sec
 * total energy  :  -148.6835242 Eh     change       -0.3668303E-02 Eh
   gradient norm :     0.0240748 Eh/α   predicted    -0.3893163E-02 (   6.13%)
   displ. norm   :     0.7054604 α      lambda       -0.4335232E-02
   maximum displ.:     0.3003530 α      in ANC's #12, #18, #14, ...

........................................................................
.............................. CYCLE   18 ..............................
........................................................................

 iter      E             dE          RMSdq      gap      omega  full diag
   1   -151.1045400 -0.151105E+03  0.105E-01    2.26       0.0  T
   2   -151.1045666 -0.265260E-04  0.628E-02    2.26       1.0  T
   3   -151.1045115  0.550623E-04  0.331E-02    2.26       1.0  T
   4   -151.1045807 -0.691736E-04  0.526E-03    2.26       2.0  T
   5   -151.1045820 -0.133554E-05  0.196E-03    2.26       5.4  T
   6   -151.1045821 -0.133987E-06  0.107E-03    2.26       9.8  T
   7   -151.1045822 -0.405634E-07  0.276E-04    2.26      38.0  T
   8   -151.1045822 -0.419882E-08  0.117E-04    2.26      89.7  T
     SCC iter.                  ...        0 min,  0.061 sec
     gradient                   ...        0 min,  0.067 sec
 * total energy  :  -148.6868694 Eh     change       -0.3345234E-02 Eh
   gradient norm :     0.0215333 Eh/α   predicted    -0.3246383E-02 (  -2.95%)
   displ. norm   :     0.7240922 α      lambda       -0.3987030E-02
   maximum displ.:     0.3394836 α      in ANC's #12, #14, #8, ...

........................................................................
.............................. CYCLE   19 ..............................
........................................................................

 iter      E             dE          RMSdq      gap      omega  full diag
   1   -151.1054289 -0.151105E+03  0.113E-01    2.29       0.0  T
   2   -151.1054574 -0.284554E-04  0.675E-02    2.30       1.0  T
   3   -151.1053955  0.618950E-04  0.345E-02    2.30       1.0  T
   4   -151.1054728 -0.773300E-04  0.558E-03    2.30       1.9  T
   5   -151.1054743 -0.141979E-05  0.201E-03    2.30       5.2  T
   6   -151.1054744 -0.146234E-06  0.115E-03    2.30       9.1  T
   7   -151.1054744 -0.435023E-07  0.283E-04    2.30      37.1  T
   8   -151.1054745 -0.343934E-08  0.130E-04    2.30      80.4  T
     SCC iter.                  ...        0 min,  0.061 sec
     gradient                   ...        0 min,  0.067 sec
 * total energy  :  -148.6899386 Eh     change       -0.3069241E-02 Eh
   gradient norm :     0.0215125 Eh/α   predicted    -0.3038742E-02 (  -0.99%)
   displ. norm   :     0.7402893 α      lambda       -0.3749137E-02
   maximum displ.:     0.3259715 α      in ANC's #12, #14, #8, ...

........................................................................
.............................. CYCLE   20 ..............................
........................................................................

 iter      E             dE          RMSdq      gap      omega  full diag
   1   -151.1098429 -0.151110E+03  0.114E-01    2.31       0.0  T
   2   -151.1098710 -0.280663E-04  0.669E-02    2.32       1.0  T
   3   -151.1098129  0.580234E-04  0.340E-02    2.33       1.0  T
   4   -151.1098865 -0.735383E-04  0.477E-03    2.33       2.2  T
   5   -151.1098875 -0.998282E-06  0.215E-03    2.33       4.9  T
   6   -151.1098876 -0.147816E-06  0.104E-03    2.33      10.1  T
   7   -151.1098876 -0.296972E-07  0.277E-04    2.33      37.8  T
   8   -151.1098876 -0.372208E-08  0.128E-04    2.33      81.9  T
     SCC iter.                  ...        0 min,  0.061 sec
     gradient                   ...        0 min,  0.067 sec
 * total energy  :  -148.6930372 Eh     change       -0.3098614E-02 Eh
   gradient norm :     0.0235436 Eh/α   predicted    -0.2901885E-02 (  -6.35%)
   displ. norm   :     0.7623141 α      lambda       -0.3649969E-02
   maximum displ.:     0.3311272 α      in ANC's #12, #8, #14, ...
 * RMSD in coord.:     1.2752101 α      energy gain  -0.7274566E+00 Eh

generating ANC from exact Hessian ...
Using Lindh-Hessian (1995)
 Shifting diagonal of input Hessian by    9.9641004754805473E-003
 Lowest  eigenvalues of input Hessian
    0.000000    0.000000    0.000000    0.000000    0.000000    0.000000
    0.010000    0.010059    0.010066    0.010152    0.010194    0.010295
    0.010572    0.010675    0.010869    0.011262    0.011403    0.011795
 Highest eigenvalues
    2.206833    2.221632    2.245162    2.279031    2.299609    2.331812


........................................................................
.............................. CYCLE   21 ..............................
........................................................................

 iter      E             dE          RMSdq      gap      omega  full diag
   1   -151.1126961 -0.151113E+03  0.113E-01    2.34       0.0  T
   2   -151.1127149 -0.187630E-04  0.658E-02    2.35       1.0  T
   3   -151.1126829  0.320355E-04  0.241E-02    2.35       1.0  T
   4   -151.1127229 -0.400434E-04  0.353E-03    2.35       3.0  T
   5   -151.1127233 -0.346442E-06  0.210E-03    2.35       5.0  T
   6   -151.1127234 -0.113834E-06  0.819E-04    2.35      12.8  T
   7   -151.1127234 -0.288314E-07  0.274E-04    2.35      38.3  T
     SCC iter.                  ...        0 min,  0.054 sec
     gradient                   ...        0 min,  0.067 sec
 * total energy  :  -148.6961286 Eh     change       -0.3091392E-02 Eh
   gradient norm :     0.0162632 Eh/α   predicted     0.0000000E+00 (-100.00%)
   displ. norm   :     0.3152684 α      lambda       -0.2208578E-02
   maximum displ.:     0.1125478 α      in ANC's #12, #8, #17, ...

........................................................................
.............................. CYCLE   22 ..............................
........................................................................

 iter      E             dE          RMSdq      gap      omega  full diag
   1   -151.1159863 -0.151116E+03  0.784E-02    2.35       0.0  T
   2   -151.1159900 -0.367836E-05  0.463E-02    2.36       1.0  T
   3   -151.1159792  0.108414E-04  0.134E-02    2.35       1.0  T
   4   -151.1159920 -0.128154E-04  0.184E-03    2.35       5.7  T
   5   -151.1159921 -0.983371E-07  0.104E-03    2.36      10.0  T
   6   -151.1159921 -0.242967E-07  0.423E-04    2.36      24.8  T
   7   -151.1159921 -0.680157E-08  0.121E-04    2.36      86.7  T
     SCC iter.                  ...        0 min,  0.054 sec
     gradient                   ...        0 min,  0.067 sec
 * total energy  :  -148.6977995 Eh     change       -0.1670832E-02 Eh
   gradient norm :     0.0101948 Eh/α   predicted    -0.1216680E-02 ( -27.18%)
   displ. norm   :     0.5691882 α      lambda       -0.2535128E-02
   maximum displ.:     0.2265886 α      in ANC's #8, #12, #17, ...

........................................................................
.............................. CYCLE   23 ..............................
........................................................................

 iter      E             dE          RMSdq      gap      omega  full diag
   1   -151.1173014 -0.151117E+03  0.120E-01    2.36       0.0  T
   2   -151.1173094 -0.798960E-05  0.702E-02    2.36       1.0  T
   3   -151.1172855  0.238618E-04  0.183E-02    2.36       1.0  T
   4   -151.1173134 -0.279219E-04  0.288E-03    2.36       3.6  T
   5   -151.1173137 -0.314358E-06  0.150E-03    2.36       7.0  T
   6   -151.1173138 -0.510668E-07  0.620E-04    2.36      16.9  T
   7   -151.1173138 -0.138903E-07  0.155E-04    2.36      67.5  T
     SCC iter.                  ...        0 min,  0.054 sec
     gradient                   ...        0 min,  0.067 sec
 * total energy  :  -148.6998212 Eh     change       -0.2021738E-02 Eh
   gradient norm :     0.0144591 Eh/α   predicted    -0.1678227E-02 ( -16.99%)
   displ. norm   :     0.6543556 α      lambda       -0.2394880E-02
   maximum displ.:     0.2804348 α      in ANC's #12, #8, #17, ...

........................................................................
.............................. CYCLE   24 ..............................
........................................................................

 iter      E             dE          RMSdq      gap      omega  full diag
   1   -151.1169437 -0.151117E+03  0.116E-01    2.37       0.0  T
   2   -151.1169583 -0.145815E-04  0.678E-02    2.37       1.0  T
   3   -151.1168934  0.649067E-04  0.328E-02    2.37       1.0  T
   4   -151.1169689 -0.755371E-04  0.330E-03    2.37       3.2  T
   5   -151.1169695 -0.533269E-06  0.165E-03    2.37       6.3  T
   6   -151.1169695 -0.728568E-07  0.767E-04    2.37      13.7  T
   7   -151.1169695 -0.132469E-07  0.176E-04    2.37      59.6  T
     SCC iter.                  ...        0 min,  0.054 sec
     gradient                   ...        0 min,  0.067 sec
 * total energy  :  -148.7018397 Eh     change       -0.2018540E-02 Eh
   gradient norm :     0.0149210 Eh/α   predicted    -0.1710165E-02 ( -15.28%)
   displ. norm   :     0.6953741 α      lambda       -0.2325336E-02
   maximum displ.:     0.3210093 α      in ANC's #12, #8, #17, ...

........................................................................
.............................. CYCLE   25 ..............................
........................................................................

 iter      E             dE          RMSdq      gap      omega  full diag
   1   -151.1189315 -0.151119E+03  0.112E-01    2.37       0.0  T
   2   -151.1189495 -0.179554E-04  0.652E-02    2.37       1.0  T
   3   -151.1188741  0.754059E-04  0.376E-02    2.37       1.0  T
   4   -151.1189648 -0.907288E-04  0.336E-03    2.37       3.1  T
   5   -151.1189653 -0.530661E-06  0.168E-03    2.37       6.2  T
   6   -151.1189654 -0.810251E-07  0.824E-04    2.37      12.7  T
   7   -151.1189654 -0.175166E-07  0.206E-04    2.37      51.0  T
     SCC iter.                  ...        0 min,  0.054 sec
     gradient                   ...        0 min,  0.068 sec
 * total energy  :  -148.7037562 Eh     change       -0.1916425E-02 Eh
   gradient norm :     0.0168417 Eh/α   predicted    -0.1724876E-02 ( -10.00%)
   displ. norm   :     0.7109002 α      lambda       -0.1984064E-02
   maximum displ.:     0.3363020 α      in ANC's #12, #8, #4, ...

........................................................................
.............................. CYCLE   26 ..............................
........................................................................

 iter      E             dE          RMSdq      gap      omega  full diag
   1   -151.1213027 -0.151121E+03  0.114E-01    2.38       0.0  T
   2   -151.1213146 -0.119279E-04  0.665E-02    2.38       1.0  T
   3   -151.1212456  0.690621E-04  0.339E-02    2.38       1.0  T
   4   -151.1213263 -0.807778E-04  0.295E-03    2.38       3.6  T
   5   -151.1213266 -0.292383E-06  0.157E-03    2.38       6.7  T
   6   -151.1213267 -0.759174E-07  0.742E-04    2.38      14.1  T
   7   -151.1213267 -0.166102E-07  0.188E-04    2.38      55.8  T
     SCC iter.                  ...        0 min,  0.054 sec
     gradient                   ...        0 min,  0.067 sec
 * total energy  :  -148.7054404 Eh     change       -0.1684192E-02 Eh
   gradient norm :     0.0139571 Eh/α   predicted    -0.1493392E-02 ( -11.33%)
   displ. norm   :     0.6777979 α      lambda       -0.2042667E-02
   maximum displ.:     0.3465544 α      in ANC's #8, #12, #4, ...

........................................................................
.............................. CYCLE   27 ..............................
........................................................................

 iter      E             dE          RMSdq      gap      omega  full diag
   1   -151.1353156 -0.151135E+03  0.999E-02    2.38       0.0  T
   2   -151.1353291 -0.135807E-04  0.581E-02    2.38       1.0  T
   3   -151.1352703  0.588775E-04  0.351E-02    2.38       1.0  T
   4   -151.1353451 -0.748289E-04  0.275E-03    2.38       3.8  T
   5   -151.1353452 -0.129128E-06  0.185E-03    2.38       5.7  T
   6   -151.1353453 -0.108732E-06  0.744E-04    2.38      14.1  T
   7   -151.1353453 -0.166598E-07  0.214E-04    2.38      49.1  T
     SCC iter.                  ...        0 min,  0.054 sec
     gradient                   ...        0 min,  0.067 sec
 * total energy  :  -148.7067866 Eh     change       -0.1346243E-02 Eh
   gradient norm :     0.0155551 Eh/α   predicted    -0.1490548E-02 (  10.72%)
   displ. norm   :     0.7486609 α      lambda       -0.1901453E-02
   maximum displ.:     0.3783878 α      in ANC's #8, #12, #4, ...

........................................................................
.............................. CYCLE   28 ..............................
........................................................................

 iter      E             dE          RMSdq      gap      omega  full diag
   1   -151.1278643 -0.151128E+03  0.131E-01    2.38       0.0  T
   2   -151.1278738 -0.952253E-05  0.772E-02    2.37       1.0  T
   3   -151.1278360  0.378236E-04  0.228E-02    2.38       1.0  T
   4   -151.1278798 -0.438205E-04  0.317E-03    2.37       3.3  T
   5   -151.1278801 -0.224945E-06  0.158E-03    2.37       6.6  T
   6   -151.1278801 -0.535953E-07  0.811E-04    2.37      12.9  T
   7   -151.1278801 -0.209166E-07  0.196E-04    2.37      53.5  T
     SCC iter.                  ...        0 min,  0.053 sec
     gradient                   ...        0 min,  0.067 sec
 * total energy  :  -148.7080389 Eh     change       -0.1252311E-02 Eh
   gradient norm :     0.0123424 Eh/α   predicted    -0.1483604E-02 (  18.47%)
   displ. norm   :     0.5773550 α      lambda       -0.9797001E-03
   maximum displ.:     0.3175907 α      in ANC's #8, #12, #4, ...

........................................................................
.............................. CYCLE   29 ..............................
........................................................................

 iter      E             dE          RMSdq      gap      omega  full diag
   1   -151.1282769 -0.151128E+03  0.766E-02    2.37       0.0  T
   2   -151.1282816 -0.472862E-05  0.448E-02    2.37       1.0  T
   3   -151.1282594  0.222153E-04  0.185E-02    2.37       1.0  T
   4   -151.1282853 -0.258922E-04  0.185E-03    2.37       5.7  T
   5   -151.1282854 -0.101535E-06  0.111E-03    2.37       9.4  T
   6   -151.1282854 -0.328647E-07  0.445E-04    2.37      23.6  T
   7   -151.1282854 -0.551822E-08  0.142E-04    2.37      73.8  T
     SCC iter.                  ...        0 min,  0.054 sec
     gradient                   ...        0 min,  0.067 sec
 * total energy  :  -148.7088616 Eh     change       -0.8226776E-03 Eh
   gradient norm :     0.0109504 Eh/α   predicted    -0.6531458E-03 ( -20.61%)
   displ. norm   :     0.5940462 α      lambda       -0.1282785E-02
   maximum displ.:     0.3513924 α      in ANC's #8, #12, #4, ...

........................................................................
.............................. CYCLE   30 ..............................
........................................................................

 iter      E             dE          RMSdq      gap      omega  full diag
   1   -151.1414154 -0.151141E+03  0.775E-02    2.36       0.0  T
   2   -151.1414254 -0.998272E-05  0.453E-02    2.36       1.0  T
   3   -151.1413979  0.275545E-04  0.222E-02    2.36       1.0  T
   4   -151.1414313 -0.334637E-04  0.266E-03    2.36       3.9  T
   5   -151.1414316 -0.261294E-06  0.147E-03    2.36       7.1  T
   6   -151.1414316 -0.460846E-07  0.681E-04    2.36      15.4  T
   7   -151.1414316 -0.999020E-08  0.170E-04    2.36      61.6  T
     SCC iter.                  ...        0 min,  0.053 sec
     gradient                   ...        0 min,  0.067 sec
 * total energy  :  -148.7096815 Eh     change       -0.8198609E-03 Eh
   gradient norm :     0.0121791 Eh/α   predicted    -0.8677350E-03 (   5.84%)
   displ. norm   :     0.6856286 α      lambda       -0.1041130E-02
   maximum displ.:     0.3969764 α      in ANC's #8, #12, #4, ...

........................................................................
.............................. CYCLE   31 ..............................
........................................................................

 iter      E             dE          RMSdq      gap      omega  full diag
   1   -151.1376733 -0.151138E+03  0.939E-02    2.36       0.0  T
   2   -151.1376837 -0.104208E-04  0.548E-02    2.35       1.0  T
   3   -151.1376649  0.187740E-04  0.175E-02    2.35       1.0  T
   4   -151.1376869 -0.219436E-04  0.294E-03    2.35       3.6  T
   5   -151.1376873 -0.411832E-06  0.139E-03    2.35       7.6  T
   6   -151.1376873 -0.125868E-07  0.714E-04    2.35      14.7  T
   7   -151.1376873 -0.224552E-07  0.163E-04    2.35      64.4  T
     SCC iter.                  ...        0 min,  0.053 sec
     gradient                   ...        0 min,  0.067 sec
 * total energy  :  -148.7103581 Eh     change       -0.6766590E-03 Eh
   gradient norm :     0.0145573 Eh/α   predicted    -0.7652764E-03 (  13.10%)
   displ. norm   :     0.5647306 α      lambda       -0.8192804E-03
   maximum displ.:     0.3389477 α      in ANC's #8, #4, #12, ...

........................................................................
.............................. CYCLE   32 ..............................
........................................................................

 iter      E             dE          RMSdq      gap      omega  full diag
   1   -151.1348037 -0.151135E+03  0.791E-02    2.35       0.0  T
   2   -151.1348071 -0.340173E-05  0.465E-02    2.35       1.0  T
   3   -151.1348019  0.522460E-05  0.825E-03    2.35       1.3  T
   4   -151.1348081 -0.626133E-05  0.181E-03    2.35       5.8  T
   5   -151.1348083 -0.133812E-06  0.812E-04    2.35      12.9  T
   6   -151.1348083 -0.386052E-09  0.382E-04    2.35      27.5  T
     SCC iter.                  ...        0 min,  0.046 sec
     gradient                   ...        0 min,  0.067 sec
 * total energy  :  -148.7109249 Eh     change       -0.5668208E-03 Eh
   gradient norm :     0.0098251 Eh/α   predicted    -0.5402831E-03 (  -4.68%)
   displ. norm   :     0.5334745 α      lambda       -0.7280787E-03
   maximum displ.:     0.3213035 α      in ANC's #8, #4, #12, ...

........................................................................
.............................. CYCLE   33 ..............................
........................................................................

 iter      E             dE          RMSdq      gap      omega  full diag
   1   -151.1396846 -0.151140E+03  0.675E-02    2.35       0.0  T
   2   -151.1396871 -0.247606E-05  0.396E-02    2.35       1.0  T
   3   -151.1396817  0.534176E-05  0.850E-03    2.35       1.2  T
   4   -151.1396881 -0.634311E-05  0.144E-03    2.35       7.3  T
   5   -151.1396881 -0.614248E-07  0.784E-04    2.35      13.4  T
   6   -151.1396881 -0.624107E-08  0.378E-04    2.35      27.7  T
     SCC iter.                  ...        0 min,  0.046 sec
     gradient                   ...        0 min,  0.068 sec
 * total energy  :  -148.7115215 Eh     change       -0.5965412E-03 Eh
   gradient norm :     0.0069715 Eh/α   predicted    -0.4676452E-03 ( -21.61%)
   displ. norm   :     0.6642636 α      lambda       -0.6931705E-03
   maximum displ.:     0.3984760 α      in ANC's #8, #4, #9, ...

........................................................................
.............................. CYCLE   34 ..............................
........................................................................

 iter      E             dE          RMSdq      gap      omega  full diag
   1   -151.1411708 -0.151141E+03  0.889E-02    2.35       0.0  T
   2   -151.1411737 -0.297296E-05  0.523E-02    2.35       1.0  T
   3   -151.1411643  0.944281E-05  0.108E-02    2.35       1.0  T
   4   -151.1411754 -0.110703E-04  0.155E-03    2.35       6.8  T
   5   -151.1411754 -0.410359E-07  0.867E-04    2.35      12.1  T
   6   -151.1411754 -0.130361E-07  0.416E-04    2.35      25.2  T
     SCC iter.                  ...        0 min,  0.046 sec
     gradient                   ...        0 min,  0.068 sec
 * total energy  :  -148.7120858 Eh     change       -0.5642778E-03 Eh
   gradient norm :     0.0054870 Eh/α   predicted    -0.4995207E-03 ( -11.48%)
   displ. norm   :     0.6505344 α      lambda       -0.5940892E-03
   maximum displ.:     0.3670672 α      in ANC's #8, #4, #9, ...

........................................................................
.............................. CYCLE   35 ..............................
........................................................................

 iter      E             dE          RMSdq      gap      omega  full diag
   1   -151.1437181 -0.151144E+03  0.884E-02    2.36       0.0  T
   2   -151.1437214 -0.338070E-05  0.520E-02    2.36       1.0  T
   3   -151.1437098  0.116663E-04  0.120E-02    2.36       1.0  T
   4   -151.1437234 -0.135788E-04  0.164E-03    2.36       6.4  T
   5   -151.1437234 -0.648333E-07  0.917E-04    2.36      11.4  T
   6   -151.1437234 -0.189009E-07  0.438E-04    2.36      23.9  T
     SCC iter.                  ...        0 min,  0.046 sec
     gradient                   ...        0 min,  0.067 sec
 * total energy  :  -148.7125062 Eh     change       -0.4204781E-03 Eh
   gradient norm :     0.0088657 Eh/α   predicted    -0.4227537E-03 (   0.54%)
   displ. norm   :     0.6328037 α      lambda       -0.5914318E-03
   maximum displ.:     0.3648313 α      in ANC's #8, #4, #9, ...

........................................................................
.............................. CYCLE   36 ..............................
........................................................................

 iter      E             dE          RMSdq      gap      omega  full diag
   1   -151.1406966 -0.151141E+03  0.925E-02    2.36       0.0  T
   2   -151.1407025 -0.595536E-05  0.545E-02    2.37       1.0  T
   3   -151.1406847  0.178249E-04  0.147E-02    2.37       1.0  T
   4   -151.1407048 -0.201298E-04  0.266E-03    2.37       3.9  T
   5   -151.1407052 -0.389003E-06  0.103E-03    2.37      10.2  T
   6   -151.1407052 -0.708758E-08  0.608E-04    2.37      17.2  T
   7   -151.1407052 -0.142260E-07  0.119E-04    2.37      88.2  T
     SCC iter.                  ...        0 min,  0.054 sec
     gradient                   ...        0 min,  0.067 sec
 * total energy  :  -148.7128353 Eh     change       -0.3290177E-03 Eh
   gradient norm :     0.0090538 Eh/α   predicted    -0.4141358E-03 (  25.87%)
   displ. norm   :     0.5034546 α      lambda       -0.4332092E-03
   maximum displ.:     0.2821483 α      in ANC's #8, #4, #9, ...

........................................................................
.............................. CYCLE   37 ..............................
........................................................................

 iter      E             dE          RMSdq      gap      omega  full diag
   1   -151.1379179 -0.151138E+03  0.674E-02    2.37       0.0  T
   2   -151.1379208 -0.290350E-05  0.395E-02    2.37       1.0  T
   3   -151.1379143  0.648584E-05  0.943E-03    2.37       1.1  T
   4   -151.1379217 -0.746163E-05  0.168E-03    2.37       6.3  T
   5   -151.1379219 -0.143904E-06  0.826E-04    2.37      12.7  T
   6   -151.1379219 -0.674260E-08  0.390E-04    2.37      26.9  T
     SCC iter.                  ...        0 min,  0.046 sec
     gradient                   ...        0 min,  0.068 sec
 * total energy  :  -148.7131254 Eh     change       -0.2901545E-03 Eh
   gradient norm :     0.0073790 Eh/α   predicted    -0.2715077E-03 (  -6.43%)
   displ. norm   :     0.4063983 α      lambda       -0.4482425E-03
   maximum displ.:     0.2456086 α      in ANC's #4, #8, #9, ...

........................................................................
.............................. CYCLE   38 ..............................
........................................................................

 iter      E             dE          RMSdq      gap      omega  full diag
   1   -151.1473646 -0.151147E+03  0.549E-02    2.36       0.0  T
   2   -151.1473686 -0.396854E-05  0.323E-02    2.36       1.0  T
   3   -151.1473498  0.187459E-04  0.166E-02    2.37       1.0  T
   4   -151.1473719 -0.220719E-04  0.157E-03    2.37       6.7  T
   5   -151.1473720 -0.130069E-06  0.753E-04    2.37      13.9  T
   6   -151.1473720 -0.184829E-07  0.390E-04    2.37      26.9  T
     SCC iter.                  ...        0 min,  0.046 sec
     gradient                   ...        0 min,  0.067 sec
 * total energy  :  -148.7133775 Eh     change       -0.2521417E-03 Eh
   gradient norm :     0.0118803 Eh/α   predicted    -0.2611380E-03 (   3.57%)
   displ. norm   :     0.5080730 α      lambda       -0.4577026E-03
   maximum displ.:     0.3066057 α      in ANC's #4, #8, #5, ...

........................................................................
.............................. CYCLE   39 ..............................
........................................................................

 iter      E             dE          RMSdq      gap      omega  full diag
   1   -151.1455564 -0.151146E+03  0.658E-02    2.36       0.0  T
   2   -151.1455595 -0.312879E-05  0.385E-02    2.36       1.0  T
   3   -151.1455519  0.758506E-05  0.101E-02    2.36       1.0  T
   4   -151.1455608 -0.882799E-05  0.155E-03    2.36       6.8  T
   5   -151.1455609 -0.990144E-07  0.890E-04    2.36      11.8  T
   6   -151.1455609 -0.202938E-07  0.372E-04    2.36      28.2  T
     SCC iter.                  ...        0 min,  0.046 sec
     gradient                   ...        0 min,  0.067 sec
 * total energy  :  -148.7136482 Eh     change       -0.2706406E-03 Eh
   gradient norm :     0.0093287 Eh/α   predicted    -0.2879282E-03 (   6.39%)
   displ. norm   :     0.4291116 α      lambda       -0.3476297E-03
   maximum displ.:     0.2692138 α      in ANC's #4, #8, #5, ...

........................................................................
.............................. CYCLE   40 ..............................
........................................................................

 iter      E             dE          RMSdq      gap      omega  full diag
   1   -151.1440799 -0.151144E+03  0.535E-02    2.36       0.0  T
   2   -151.1440819 -0.201700E-05  0.313E-02    2.36       1.0  T
   3   -151.1440788  0.306608E-05  0.618E-03    2.36       1.7  T
   4   -151.1440825 -0.365279E-05  0.130E-03    2.36       8.0  T
   5   -151.1440825 -0.808175E-07  0.604E-04    2.36      17.4  T
   6   -151.1440825 -0.157192E-08  0.329E-04    2.36      31.9  T
     SCC iter.                  ...        0 min,  0.046 sec
     gradient                   ...        0 min,  0.067 sec
 * total energy  :  -148.7139164 Eh     change       -0.2681683E-03 Eh
   gradient norm :     0.0062384 Eh/α   predicted    -0.2058220E-03 ( -23.25%)
   displ. norm   :     0.4832359 α      lambda       -0.3462556E-03
   maximum displ.:     0.3144030 α      in ANC's #4, #8, #5, ...

........................................................................
.............................. CYCLE   41 ..............................
........................................................................

 iter      E             dE          RMSdq      gap      omega  full diag
   1   -151.1456969 -0.151146E+03  0.513E-02    2.36       0.0  T
   2   -151.1456989 -0.196729E-05  0.301E-02    2.36       1.0  T
   3   -151.1456907  0.817143E-05  0.975E-03    2.36       1.1  T
   4   -151.1457001 -0.939271E-05  0.127E-03    2.36       8.2  T
   5   -151.1457002 -0.526690E-07  0.749E-04    2.36      14.0  T
   6   -151.1457002 -0.161378E-07  0.314E-04    2.36      33.3  T
     SCC iter.                  ...        0 min,  0.046 sec
     gradient                   ...        0 min,  0.067 sec
 * total energy  :  -148.7141875 Eh     change       -0.2711695E-03 Eh
   gradient norm :     0.0062749 Eh/α   predicted    -0.2135618E-03 ( -21.24%)
   displ. norm   :     0.5885852 α      lambda       -0.3730258E-03
   maximum displ.:     0.3920136 α      in ANC's #4, #5, #8, ...

........................................................................
.............................. CYCLE   42 ..............................
........................................................................

 iter      E             dE          RMSdq      gap      omega  full diag
   1   -151.1475755 -0.151148E+03  0.650E-02    2.35       0.0  T
   2   -151.1475791 -0.356163E-05  0.383E-02    2.36       1.0  T
   3   -151.1475615  0.176166E-04  0.143E-02    2.36       1.0  T
   4   -151.1475815 -0.199923E-04  0.170E-03    2.36       6.2  T
   5   -151.1475816 -0.124963E-06  0.801E-04    2.36      13.1  T
   6   -151.1475816 -0.133924E-07  0.421E-04    2.36      24.9  T
     SCC iter.                  ...        0 min,  0.047 sec
     gradient                   ...        0 min,  0.068 sec
 * total energy  :  -148.7145040 Eh     change       -0.3164601E-03 Eh
   gradient norm :     0.0069868 Eh/α   predicted    -0.2511322E-03 ( -20.64%)
   displ. norm   :     0.5796954 α      lambda       -0.3888036E-03
   maximum displ.:     0.3841918 α      in ANC's #4, #5, #6, ...
 * RMSD in coord.:     1.1600160 α      energy gain  -0.2146674E-01 Eh

generating ANC from exact Hessian ...
Using Lindh-Hessian (1995)
 Shifting diagonal of input Hessian by    9.9633785105289509E-003
 Lowest  eigenvalues of input Hessian
    0.000000    0.000000    0.000000    0.000000    0.000000    0.000000
    0.010000    0.010042    0.010061    0.010153    0.010197    0.010253
    0.010530    0.010603    0.010988    0.011173    0.011316    0.011616
 Highest eigenvalues
    2.225844    2.237596    2.256667    2.303375    2.310083    2.354437


........................................................................
.............................. CYCLE   43 ..............................
........................................................................

 iter      E             dE          RMSdq      gap      omega  full diag
   1   -151.1473333 -0.151147E+03  0.604E-02    2.35       0.0  T
   2   -151.1473355 -0.215510E-05  0.354E-02    2.35       1.0  T
   3   -151.1473296  0.582453E-05  0.821E-03    2.35       1.3  T
   4   -151.1473364 -0.678224E-05  0.136E-03    2.36       7.7  T
   5   -151.1473365 -0.723889E-07  0.714E-04    2.36      14.7  T
   6   -151.1473365 -0.825574E-08  0.359E-04    2.36      29.2  T
     SCC iter.                  ...        0 min,  0.046 sec
     gradient                   ...        0 min,  0.067 sec
 * total energy  :  -148.7148405 Eh     change       -0.3365248E-03 Eh
   gradient norm :     0.0064881 Eh/α   predicted     0.0000000E+00 (-100.00%)
   displ. norm   :     0.0803465 α      lambda       -0.1424175E-03
   maximum displ.:     0.0410944 α      in ANC's #4, #6, #21, ...

........................................................................
.............................. CYCLE   44 ..............................
........................................................................

 iter      E             dE          RMSdq      gap      omega  full diag
   1   -151.1476551 -0.151148E+03  0.190E-02    2.35       0.0  T
   2   -151.1476557 -0.597672E-06  0.110E-02    2.35       1.0  T
   3   -151.1476547  0.100023E-05  0.381E-03    2.36       2.8  T
   4   -151.1476558 -0.116319E-05  0.797E-04    2.36      13.1  T
   5   -151.1476559 -0.428078E-07  0.302E-04    2.36      34.7  T
   6   -151.1476559 -0.140344E-08  0.136E-04    2.36      76.8  T
     SCC iter.                  ...        0 min,  0.046 sec
     gradient                   ...        0 min,  0.067 sec
 * total energy  :  -148.7149613 Eh     change       -0.1208328E-03 Eh
   gradient norm :     0.0030295 Eh/α   predicted    -0.7365828E-04 ( -39.04%)
   displ. norm   :     0.2413038 α      lambda       -0.2690957E-03
   maximum displ.:     0.1243682 α      in ANC's #4, #6, #21, ...

........................................................................
.............................. CYCLE   45 ..............................
........................................................................

 iter      E             dE          RMSdq      gap      omega  full diag
   1   -151.1477869 -0.151148E+03  0.497E-02    2.35       0.0  T
   2   -151.1477900 -0.314200E-05  0.288E-02    2.35       1.0  T
   3   -151.1477818  0.816618E-05  0.108E-02    2.36       1.0  T
   4   -151.1477914 -0.955692E-05  0.171E-03    2.36       6.1  T
   5   -151.1477915 -0.135656E-06  0.757E-04    2.36      13.8  T
   6   -151.1477915 -0.902909E-08  0.335E-04    2.36      31.3  T
     SCC iter.                  ...        0 min,  0.046 sec
     gradient                   ...        0 min,  0.067 sec
 * total energy  :  -148.7151498 Eh     change       -0.1884117E-03 Eh
   gradient norm :     0.0047032 Eh/α   predicted    -0.1423856E-03 ( -24.43%)
   displ. norm   :     0.2489012 α      lambda       -0.1673707E-03
   maximum displ.:     0.1330142 α      in ANC's #4, #6, #21, ...

........................................................................
.............................. CYCLE   46 ..............................
........................................................................

 iter      E             dE          RMSdq      gap      omega  full diag
   1   -151.1474699 -0.151147E+03  0.452E-02    2.35       0.0  T
   2   -151.1474716 -0.165305E-05  0.263E-02    2.35       1.0  T
   3   -151.1474663  0.527943E-05  0.865E-03    2.36       1.2  T
   4   -151.1474725 -0.620555E-05  0.127E-03    2.36       8.3  T
   5   -151.1474725 -0.386929E-07  0.642E-04    2.36      16.3  T
   6   -151.1474725 -0.980032E-08  0.248E-04    2.36      42.2  T
     SCC iter.                  ...        0 min,  0.046 sec
     gradient                   ...        0 min,  0.068 sec
 * total energy  :  -148.7152880 Eh     change       -0.1382679E-03 Eh
   gradient norm :     0.0067136 Eh/α   predicted    -0.8887003E-04 ( -35.73%)
   displ. norm   :     0.3543129 α      lambda       -0.2370762E-03
   maximum displ.:     0.1915490 α      in ANC's #4, #6, #2, ...

........................................................................
.............................. CYCLE   47 ..............................
........................................................................

 iter      E             dE          RMSdq      gap      omega  full diag
   1   -151.1469421 -0.151147E+03  0.586E-02    2.35       0.0  T
   2   -151.1469442 -0.208190E-05  0.341E-02    2.35       1.0  T
   3   -151.1469379  0.625960E-05  0.959E-03    2.35       1.1  T
   4   -151.1469454 -0.747248E-05  0.150E-03    2.35       7.0  T
   5   -151.1469454 -0.281964E-07  0.785E-04    2.35      13.3  T
   6   -151.1469455 -0.225852E-07  0.243E-04    2.35      43.1  T
     SCC iter.                  ...        0 min,  0.046 sec
     gradient                   ...        0 min,  0.067 sec
 * total energy  :  -148.7154913 Eh     change       -0.2032591E-03 Eh
   gradient norm :     0.0062072 Eh/α   predicted    -0.1334199E-03 ( -34.36%)
   displ. norm   :     0.4626044 α      lambda       -0.3034786E-03
   maximum displ.:     0.2565153 α      in ANC's #4, #6, #2, ...

........................................................................
.............................. CYCLE   48 ..............................
........................................................................

 iter      E             dE          RMSdq      gap      omega  full diag
   1   -151.1464450 -0.151146E+03  0.692E-02    2.35       0.0  T
   2   -151.1464478 -0.274864E-05  0.404E-02    2.35       1.0  T
   3   -151.1464415  0.629944E-05  0.956E-03    2.35       1.1  T
   4   -151.1464492 -0.769519E-05  0.171E-03    2.35       6.1  T
   5   -151.1464492 -0.442102E-07  0.850E-04    2.35      12.3  T
   6   -151.1464492 -0.192700E-07  0.309E-04    2.35      33.9  T
     SCC iter.                  ...        0 min,  0.046 sec
     gradient                   ...        0 min,  0.067 sec
 * total energy  :  -148.7157464 Eh     change       -0.2551062E-03 Eh
   gradient norm :     0.0042387 Eh/α   predicted    -0.1842167E-03 ( -27.79%)
   displ. norm   :     0.5022725 α      lambda       -0.2933471E-03
   maximum displ.:     0.2860199 α      in ANC's #4, #6, #2, ...

........................................................................
.............................. CYCLE   49 ..............................
........................................................................

 iter      E             dE          RMSdq      gap      omega  full diag
   1   -151.1463917 -0.151146E+03  0.674E-02    2.34       0.0  T
   2   -151.1463945 -0.285116E-05  0.394E-02    2.34       1.0  T
   3   -151.1463872  0.732085E-05  0.966E-03    2.34       1.1  T
   4   -151.1463960 -0.878113E-05  0.161E-03    2.34       6.5  T
   5   -151.1463961 -0.528941E-07  0.763E-04    2.34      13.7  T
   6   -151.1463961 -0.777760E-08  0.306E-04    2.34      34.3  T
     SCC iter.                  ...        0 min,  0.046 sec
     gradient                   ...        0 min,  0.067 sec
 * total energy  :  -148.7159967 Eh     change       -0.2503078E-03 Eh
   gradient norm :     0.0042312 Eh/α   predicted    -0.1836794E-03 ( -26.62%)
   displ. norm   :     0.5195134 α      lambda       -0.2880685E-03
   maximum displ.:     0.3010614 α      in ANC's #4, #6, #2, ...

........................................................................
.............................. CYCLE   50 ..............................
........................................................................

 iter      E             dE          RMSdq      gap      omega  full diag
   1   -151.1469114 -0.151147E+03  0.627E-02    2.33       0.0  T
   2   -151.1469142 -0.276700E-05  0.367E-02    2.34       1.0  T
   3   -151.1469051  0.907800E-05  0.104E-02    2.34       1.0  T
   4   -151.1469158 -0.106788E-04  0.146E-03    2.34       7.2  T
   5   -151.1469158 -0.408397E-07  0.728E-04    2.34      14.4  T
   6   -151.1469158 -0.636501E-08  0.343E-04    2.34      30.6  T
     SCC iter.                  ...        0 min,  0.047 sec
     gradient                   ...        0 min,  0.067 sec
 * total energy  :  -148.7162518 Eh     change       -0.2550582E-03 Eh
   gradient norm :     0.0053174 Eh/α   predicted    -0.1829085E-03 ( -28.29%)
   displ. norm   :     0.5628520 α      lambda       -0.3227628E-03
   maximum displ.:     0.3302762 α      in ANC's #4, #6, #2, ...

........................................................................
.............................. CYCLE   51 ..............................
........................................................................

 iter      E             dE          RMSdq      gap      omega  full diag
   1   -151.1478475 -0.151148E+03  0.617E-02    2.33       0.0  T
   2   -151.1478506 -0.309791E-05  0.361E-02    2.33       1.0  T
   3   -151.1478395  0.110984E-04  0.116E-02    2.33       1.0  T
   4   -151.1478525 -0.129842E-04  0.146E-03    2.33       7.2  T
   5   -151.1478525 -0.445128E-07  0.781E-04    2.33      13.4  T
   6   -151.1478526 -0.119764E-07  0.404E-04    2.33      25.9  T
     SCC iter.                  ...        0 min,  0.046 sec
     gradient                   ...        0 min,  0.067 sec
 * total energy  :  -148.7165421 Eh     change       -0.2903624E-03 Eh
   gradient norm :     0.0057323 Eh/α   predicted    -0.2125088E-03 ( -26.81%)
   displ. norm   :     0.6218095 α      lambda       -0.3674249E-03
   maximum displ.:     0.3699326 α      in ANC's #4, #6, #2, ...

........................................................................
.............................. CYCLE   52 ..............................
........................................................................

 iter      E             dE          RMSdq      gap      omega  full diag
   1   -151.1485916 -0.151149E+03  0.636E-02    2.32       0.0  T
   2   -151.1485953 -0.369953E-05  0.373E-02    2.33       1.0  T
   3   -151.1485830  0.122732E-04  0.123E-02    2.33       1.0  T
   4   -151.1485974 -0.143693E-04  0.157E-03    2.33       6.7  T
   5   -151.1485974 -0.709861E-07  0.849E-04    2.33      12.3  T
   6   -151.1485974 -0.169828E-07  0.451E-04    2.33      23.3  T
     SCC iter.                  ...        0 min,  0.047 sec
     gradient                   ...        0 min,  0.068 sec
 * total energy  :  -148.7168710 Eh     change       -0.3288833E-03 Eh
   gradient norm :     0.0050681 Eh/α   predicted    -0.2547455E-03 ( -22.54%)
   displ. norm   :     0.6605409 α      lambda       -0.3849942E-03
   maximum displ.:     0.3998117 α      in ANC's #4, #6, #2, ...

........................................................................
.............................. CYCLE   53 ..............................
........................................................................

 iter      E             dE          RMSdq      gap      omega  full diag
   1   -151.1489409 -0.151149E+03  0.651E-02    2.32       0.0  T
   2   -151.1489449 -0.394391E-05  0.382E-02    2.32       1.0  T
   3   -151.1489332  0.116963E-04  0.121E-02    2.32       1.0  T
   4   -151.1489469 -0.136891E-04  0.162E-03    2.33       6.5  T
   5   -151.1489469 -0.965272E-07  0.861E-04    2.33      12.2  T
   6   -151.1489470 -0.172034E-07  0.464E-04    2.32      22.6  T
     SCC iter.                  ...        0 min,  0.047 sec
     gradient                   ...        0 min,  0.067 sec
 * total energy  :  -148.7172123 Eh     change       -0.3413405E-03 Eh
   gradient norm :     0.0040308 Eh/α   predicted    -0.2764867E-03 ( -19.00%)
   displ. norm   :     0.6737075 α      lambda       -0.3754529E-03
   maximum displ.:     0.4149901 α      in ANC's #4, #6, #2, ...

........................................................................
.............................. CYCLE   54 ..............................
........................................................................

 iter      E             dE          RMSdq      gap      omega  full diag
   1   -151.1488492 -0.151149E+03  0.660E-02    2.31       0.0  T
   2   -151.1488528 -0.355857E-05  0.388E-02    2.32       1.0  T
   3   -151.1488417  0.110300E-04  0.116E-02    2.32       1.0  T
   4   -151.1488546 -0.128387E-04  0.158E-03    2.32       6.6  T
   5   -151.1488547 -0.925200E-07  0.849E-04    2.32      12.3  T
   6   -151.1488547 -0.185271E-07  0.455E-04    2.32      23.0  T
     SCC iter.                  ...        0 min,  0.047 sec
     gradient                   ...        0 min,  0.068 sec
 * total energy  :  -148.7175437 Eh     change       -0.3313873E-03 Eh
   gradient norm :     0.0035952 Eh/α   predicted    -0.2729377E-03 ( -17.64%)
   displ. norm   :     0.6748573 α      lambda       -0.3596886E-03
   maximum displ.:     0.4214833 α      in ANC's #4, #6, #2, ...

........................................................................
.............................. CYCLE   55 ..............................
........................................................................

 iter      E             dE          RMSdq      gap      omega  full diag
   1   -151.1485977 -0.151149E+03  0.667E-02    2.31       0.0  T
   2   -151.1486008 -0.302033E-05  0.392E-02    2.32       1.0  T
   3   -151.1485907  0.100618E-04  0.109E-02    2.32       1.0  T
   4   -151.1486024 -0.116636E-04  0.148E-03    2.32       7.1  T
   5   -151.1486024 -0.729219E-07  0.821E-04    2.32      12.8  T
   6   -151.1486025 -0.186023E-07  0.428E-04    2.32      24.5  T
     SCC iter.                  ...        0 min,  0.047 sec
     gradient                   ...        0 min,  0.068 sec
 * total energy  :  -148.7178623 Eh     change       -0.3185928E-03 Eh
   gradient norm :     0.0041679 Eh/α   predicted    -0.2617522E-03 ( -17.84%)
   displ. norm   :     0.6765309 α      lambda       -0.3541928E-03
   maximum displ.:     0.4263725 α      in ANC's #4, #6, #2, ...

........................................................................
.............................. CYCLE   56 ..............................
........................................................................

 iter      E             dE          RMSdq      gap      omega  full diag
   1   -151.1484766 -0.151148E+03  0.679E-02    2.31       0.0  T
   2   -151.1484793 -0.266139E-05  0.399E-02    2.31       1.0  T
   3   -151.1484686  0.107006E-04  0.111E-02    2.31       1.0  T
   4   -151.1484809 -0.123105E-04  0.148E-03    2.31       7.1  T
   5   -151.1484809 -0.634424E-07  0.832E-04    2.31      12.6  T
   6   -151.1484810 -0.217120E-07  0.406E-04    2.31      25.8  T
     SCC iter.                  ...        0 min,  0.047 sec
     gradient                   ...        0 min,  0.068 sec
 * total energy  :  -148.7181777 Eh     change       -0.3153620E-03 Eh
   gradient norm :     0.0049310 Eh/α   predicted    -0.2581552E-03 ( -18.14%)
   displ. norm   :     0.6889220 α      lambda       -0.3613528E-03
   maximum displ.:     0.4356822 α      in ANC's #4, #6, #2, ...

........................................................................
.............................. CYCLE   57 ..............................
........................................................................

 iter      E             dE          RMSdq      gap      omega  full diag
   1   -151.1485251 -0.151149E+03  0.688E-02    2.30       0.0  T
   2   -151.1485277 -0.259183E-05  0.405E-02    2.31       1.0  T
   3   -151.1485177  0.995591E-05  0.109E-02    2.31       1.0  T
   4   -151.1485292 -0.114635E-04  0.151E-03    2.31       6.9  T
   5   -151.1485293 -0.667752E-07  0.848E-04    2.31      12.4  T
   6   -151.1485293 -0.217106E-07  0.397E-04    2.31      26.4  T
     SCC iter.                  ...        0 min,  0.046 sec
     gradient                   ...        0 min,  0.067 sec
 * total energy  :  -148.7184995 Eh     change       -0.3218382E-03 Eh
   gradient norm :     0.0047185 Eh/α   predicted    -0.2664306E-03 ( -17.22%)
   displ. norm   :     0.7026963 α      lambda       -0.3643598E-03
   maximum displ.:     0.4453840 α      in ANC's #4, #6, #2, ...

........................................................................
.............................. CYCLE   58 ..............................
........................................................................

 iter      E             dE          RMSdq      gap      omega  full diag
   1   -151.1494248 -0.151149E+03  0.703E-02    2.30       0.0  T
   2   -151.1494274 -0.259038E-05  0.414E-02    2.31       1.0  T
   3   -151.1494152  0.121955E-04  0.124E-02    2.30       1.0  T
   4   -151.1494291 -0.139466E-04  0.157E-03    2.31       6.7  T
   5   -151.1494292 -0.738600E-07  0.864E-04    2.31      12.1  T
   6   -151.1494292 -0.209960E-07  0.391E-04    2.31      26.8  T
     SCC iter.                  ...        0 min,  0.046 sec
     gradient                   ...        0 min,  0.068 sec
 * total energy  :  -148.7188201 Eh     change       -0.3205672E-03 Eh
   gradient norm :     0.0042205 Eh/α   predicted    -0.2721397E-03 ( -15.11%)
   displ. norm   :     0.7187119 α      lambda       -0.3436587E-03
   maximum displ.:     0.4574332 α      in ANC's #4, #6, #2, ...

........................................................................
.............................. CYCLE   59 ..............................
........................................................................

 iter      E             dE          RMSdq      gap      omega  full diag
   1   -151.1492234 -0.151149E+03  0.696E-02    2.30       0.0  T
   2   -151.1492257 -0.232073E-05  0.408E-02    2.30       1.0  T
   3   -151.1492181  0.755998E-05  0.103E-02    2.30       1.0  T
   4   -151.1492269 -0.881551E-05  0.155E-03    2.30       6.8  T
   5   -151.1492270 -0.638037E-07  0.865E-04    2.30      12.1  T
   6   -151.1492270 -0.215547E-07  0.357E-04    2.30      29.4  T
     SCC iter.                  ...        0 min,  0.046 sec
     gradient                   ...        0 min,  0.068 sec
 * total energy  :  -148.7191190 Eh     change       -0.2988945E-03 Eh
   gradient norm :     0.0040451 Eh/α   predicted    -0.2605888E-03 ( -12.82%)
   displ. norm   :     0.7035269 α      lambda       -0.3224084E-03
   maximum displ.:     0.4513640 α      in ANC's #4, #6, #2, ...

........................................................................
.............................. CYCLE   60 ..............................
........................................................................

 iter      E             dE          RMSdq      gap      omega  full diag
   1   -151.1530100 -0.151153E+03  0.707E-02    2.30       0.0  T
   2   -151.1530122 -0.226726E-05  0.416E-02    2.30       1.0  T
   3   -151.1529995  0.127345E-04  0.131E-02    2.30       1.0  T
   4   -151.1530140 -0.145386E-04  0.149E-03    2.30       7.0  T
   5   -151.1530141 -0.606238E-07  0.828E-04    2.30      12.7  T
   6   -151.1530141 -0.190425E-07  0.361E-04    2.30      29.0  T
     SCC iter.                  ...        0 min,  0.047 sec
     gradient                   ...        0 min,  0.068 sec
 * total energy  :  -148.7193889 Eh     change       -0.2699259E-03 Eh
   gradient norm :     0.0044350 Eh/α   predicted    -0.2409938E-03 ( -10.72%)
   displ. norm   :     0.7621891 α      lambda       -0.3158358E-03
   maximum displ.:     0.4926587 α      in ANC's #4, #6, #2, ...

........................................................................
.............................. CYCLE   61 ..............................
........................................................................

 iter      E             dE          RMSdq      gap      omega  full diag
   1   -151.1479010 -0.151148E+03  0.736E-02    2.29       0.0  T
   2   -151.1479033 -0.233372E-05  0.431E-02    2.29       1.0  T
   3   -151.1478996  0.373845E-05  0.792E-03    2.29       1.3  T
   4   -151.1479043 -0.474478E-05  0.147E-03    2.29       7.1  T
   5   -151.1479044 -0.328361E-07  0.798E-04    2.29      13.1  T
   6   -151.1479044 -0.158210E-07  0.304E-04    2.29      34.5  T
     SCC iter.                  ...        0 min,  0.047 sec
     gradient                   ...        0 min,  0.068 sec
 * total energy  :  -148.7196427 Eh     change       -0.2538301E-03 Eh
   gradient norm :     0.0062047 Eh/α   predicted    -0.2496648E-03 (  -1.64%)
   displ. norm   :     0.6623060 α      lambda       -0.3283079E-03
   maximum displ.:     0.4370400 α      in ANC's #4, #6, #2, ...

........................................................................
.............................. CYCLE   62 ..............................
........................................................................

 iter      E             dE          RMSdq      gap      omega  full diag
   1   -151.1530747 -0.151153E+03  0.659E-02    2.29       0.0  T
   2   -151.1530766 -0.193490E-05  0.387E-02    2.29       1.0  T
   3   -151.1530702  0.643831E-05  0.948E-03    2.29       1.1  T
   4   -151.1530777 -0.752066E-05  0.129E-03    2.30       8.1  T
   5   -151.1530777 -0.409104E-07  0.763E-04    2.30      13.7  T
   6   -151.1530777 -0.159728E-07  0.339E-04    2.30      30.9  T
     SCC iter.                  ...        0 min,  0.047 sec
     gradient                   ...        0 min,  0.068 sec
 * total energy  :  -148.7199037 Eh     change       -0.2610023E-03 Eh
   gradient norm :     0.0071314 Eh/α   predicted    -0.2361619E-03 (  -9.52%)
   displ. norm   :     0.6971650 α      lambda       -0.3258059E-03
   maximum displ.:     0.4681025 α      in ANC's #4, #6, #2, ...

........................................................................
.............................. CYCLE   63 ..............................
........................................................................

 iter      E             dE          RMSdq      gap      omega  full diag
   1   -151.1526729 -0.151153E+03  0.735E-02    2.29       0.0  T
   2   -151.1526748 -0.187434E-05  0.432E-02    2.29       1.0  T
   3   -151.1526720  0.278375E-05  0.641E-03    2.29       1.6  T
   4   -151.1526755 -0.350353E-05  0.137E-03    2.29       7.6  T
   5   -151.1526756 -0.451435E-07  0.701E-04    2.29      15.0  T
   6   -151.1526756 -0.904615E-08  0.330E-04    2.29      31.8  T
     SCC iter.                  ...        0 min,  0.047 sec
     gradient                   ...        0 min,  0.067 sec
 * total energy  :  -148.7201659 Eh     change       -0.2621603E-03 Eh
   gradient norm :     0.0046947 Eh/α   predicted    -0.2420823E-03 (  -7.66%)
   displ. norm   :     0.6420722 α      lambda       -0.2950596E-03
   maximum displ.:     0.4352442 α      in ANC's #4, #6, #2, ...

........................................................................
.............................. CYCLE   64 ..............................
........................................................................

 iter      E             dE          RMSdq      gap      omega  full diag
   1   -151.1545520 -0.151155E+03  0.705E-02    2.29       0.0  T
   2   -151.1545538 -0.184959E-05  0.413E-02    2.29       1.0  T
   3   -151.1545513  0.249523E-05  0.610E-03    2.29       1.7  T
   4   -151.1545546 -0.321458E-05  0.128E-03    2.29       8.2  T
   5   -151.1545546 -0.347423E-07  0.587E-04    2.29      17.9  T
   6   -151.1545546 -0.424123E-08  0.238E-04    2.29      44.0  T
     SCC iter.                  ...        0 min,  0.046 sec
     gradient                   ...        0 min,  0.067 sec
 * total energy  :  -148.7204059 Eh     change       -0.2400207E-03 Eh
   gradient norm :     0.0040933 Eh/α   predicted    -0.2083540E-03 ( -13.19%)
   displ. norm   :     0.7329873 α      lambda       -0.2535956E-03
   maximum displ.:     0.4996261 α      in ANC's #4, #6, #2, ...

........................................................................
.............................. CYCLE   65 ..............................
........................................................................

 iter      E             dE          RMSdq      gap      omega  full diag
   1   -151.1503804 -0.151150E+03  0.788E-02    2.28       0.0  T
   2   -151.1503827 -0.227630E-05  0.462E-02    2.29       1.0  T
   3   -151.1503779  0.474190E-05  0.809E-03    2.29       1.3  T
   4   -151.1503836 -0.570821E-05  0.166E-03    2.29       6.3  T
   5   -151.1503837 -0.853114E-07  0.845E-04    2.29      12.4  T
   6   -151.1503837 -0.196235E-07  0.334E-04    2.29      31.4  T
     SCC iter.                  ...        0 min,  0.046 sec
     gradient                   ...        0 min,  0.068 sec
 * total energy  :  -148.7206072 Eh     change       -0.2012452E-03 Eh
   gradient norm :     0.0045563 Eh/α   predicted    -0.1949230E-03 (  -3.14%)
   displ. norm   :     0.5727876 α      lambda       -0.2670729E-03
   maximum displ.:     0.3786781 α      in ANC's #4, #6, #2, ...

........................................................................
.............................. CYCLE   66 ..............................
........................................................................

 iter      E             dE          RMSdq      gap      omega  full diag
   1   -151.1573507 -0.151157E+03  0.745E-02    2.28       0.0  T
   2   -151.1573544 -0.361921E-05  0.438E-02    2.28       1.0  T
   3   -151.1573488  0.556068E-05  0.885E-03    2.29       1.2  T
   4   -151.1573557 -0.687449E-05  0.173E-03    2.29       6.1  T
   5   -151.1573558 -0.897547E-07  0.801E-04    2.29      13.1  T
   6   -151.1573558 -0.110782E-07  0.325E-04    2.29      32.3  T
     SCC iter.                  ...        0 min,  0.046 sec
     gradient                   ...        0 min,  0.067 sec
 * total energy  :  -148.7207550 Eh     change       -0.1478571E-03 Eh
   gradient norm :     0.0058707 Eh/α   predicted    -0.1773519E-03 (  19.95%)
   displ. norm   :     0.6628590 α      lambda       -0.2111042E-03
   maximum displ.:     0.4505809 α      in ANC's #4, #6, #2, ...
 * RMSD in coord.:     1.3576251 α      energy gain  -0.6251038E-02 Eh

generating ANC from exact Hessian ...
Using Lindh-Hessian (1995)
 Shifting diagonal of input Hessian by    9.9624281364020136E-003
 Lowest  eigenvalues of input Hessian
    0.000000    0.000000    0.000000    0.000000    0.000000    0.000000
    0.010000    0.010046    0.010069    0.010160    0.010199    0.010227
    0.010569    0.010632    0.011022    0.011115    0.011286    0.011579
 Highest eigenvalues
    2.224667    2.245367    2.284366    2.309166    2.322612    2.359719


........................................................................
.............................. CYCLE   67 ..............................
........................................................................

 iter      E             dE          RMSdq      gap      omega  full diag
   1   -151.1496368 -0.151150E+03  0.687E-02    2.28       0.0  T
   2   -151.1496403 -0.354241E-05  0.405E-02    2.28       1.0  T
   3   -151.1496306  0.966622E-05  0.124E-02    2.28       1.0  T
   4   -151.1496422 -0.115721E-04  0.144E-03    2.28       7.3  T
   5   -151.1496423 -0.537302E-07  0.782E-04    2.28      13.4  T
   6   -151.1496423 -0.123945E-07  0.374E-04    2.28      28.0  T
     SCC iter.                  ...        0 min,  0.046 sec
     gradient                   ...        0 min,  0.067 sec
 * total energy  :  -148.7208808 Eh     change       -0.1258152E-03 Eh
   gradient norm :     0.0062565 Eh/α   predicted     0.0000000E+00 (-100.00%)
   displ. norm   :     0.0461651 α      lambda       -0.1046271E-03
   maximum displ.:     0.0161083 α      in ANC's #4, #6, #11, ...

........................................................................
.............................. CYCLE   68 ..............................
........................................................................

 iter      E             dE          RMSdq      gap      omega  full diag
   1   -151.1545350 -0.151155E+03  0.127E-02    2.28       0.0  T
   2   -151.1545355 -0.544516E-06  0.769E-03    2.28       1.4  T
   3   -151.1545348  0.719026E-06  0.418E-03    2.29       2.5  T
   4   -151.1545358 -0.982427E-06  0.719E-04    2.29      14.6  T
   5   -151.1545358 -0.338731E-07  0.286E-04    2.29      36.6  T
     SCC iter.                  ...        0 min,  0.039 sec
     gradient                   ...        0 min,  0.067 sec
 * total energy  :  -148.7209573 Eh     change       -0.7649105E-04 Eh
   gradient norm :     0.0028283 Eh/α   predicted    -0.5331484E-04 ( -30.30%)
   displ. norm   :     0.0753029 α      lambda       -0.6605755E-04
   maximum displ.:     0.0328279 α      in ANC's #4, #6, #11, ...

........................................................................
.............................. CYCLE   69 ..............................
........................................................................

 iter      E             dE          RMSdq      gap      omega  full diag
   1   -151.1575760 -0.151158E+03  0.151E-02    2.28       0.0  T
   2   -151.1575765 -0.512622E-06  0.886E-03    2.28       1.2  T
   3   -151.1575756  0.897008E-06  0.423E-03    2.28       2.5  T
   4   -151.1575767 -0.111073E-05  0.711E-04    2.28      14.8  T
   5   -151.1575768 -0.289301E-07  0.295E-04    2.28      35.6  T
   6   -151.1575768 -0.295640E-08  0.144E-04    2.28      73.0  T
     SCC iter.                  ...        0 min,  0.046 sec
     gradient                   ...        0 min,  0.067 sec
 * total energy  :  -148.7210017 Eh     change       -0.4435059E-04 Eh
   gradient norm :     0.0018606 Eh/α   predicted    -0.3321639E-04 ( -25.10%)
   displ. norm   :     0.1233692 α      lambda       -0.3599748E-04
   maximum displ.:     0.0595443 α      in ANC's #4, #6, #11, ...

   *** GEOMETRY OPTIMIZATION CONVERGED AFTER 69 ITERATIONS ***

------------------------------------------------------------------------
 total energy gain   :        -0.7554210 Eh     -474.0338 kcal/mol
 total RMSD          :         2.8384213 a0        1.5020 Å
 total power (kW/mol):       -28.7443123 (step) -204.5544 (real)
------------------------------------------------------------------------

 ANCopt (total)                0 d,  0 h,  0 min,  9.696 sec
 optimizer setup                ...        0 min,  0.000 sec (  0.002%)
 model hessian                  ...        0 min,  0.074 sec (  0.761%)
 ANC generation                 ...        0 min,  0.020 sec (  0.202%)
 coordinate transformation      ...        0 min,  0.004 sec (  0.042%)
 single point calculation       ...        0 min,  9.560 sec ( 98.600%)
 optimization log               ...        0 min,  0.017 sec (  0.175%)
 hessian update                 ...        0 min,  0.003 sec (  0.031%)
 rational function              ...        0 min,  0.010 sec (  0.108%)

================
 final structure:
================
 xtb: 6.7.1 (edcfbbe)
          08202606263D

 91101  0     0  0            999 V2000
   -5.0112   -5.0739   -3.0177 H   0  0  0  0  0  0  0  0  0  0  0  0
    0.2843   -0.9580   -4.3782 C   0  0  0  0  0  0  0  0  0  0  0  0
   -4.4236   -3.0116   -4.1834 H   0  0  0  0  0  0  0  0  0  0  0  0
   -2.4006    0.2193    7.2771 N   0  0  0  0  0  0  0  0  0  0  0  0
   -2.2102    2.7097   10.9150 H   0  0  0  0  0  0  0  0  0  0  0  0
   -2.3429   -3.0983   -3.6428 C   0  0  0  0  0  0  0  0  0  0  0  0
   -2.8359   -1.0332   -1.6005 H   0  0  0  0  0  0  0  0  0  0  0  0
    0.4879   -0.0739    4.8632 H   0  0  0  0  0  0  0  0  0  0  0  0
   -0.2589    2.9260    3.3406 C   0  0  0  0  0  0  0  0  0  0  0  0
   -0.5463   -0.9124    3.6995 H   0  0  0  0  0  0  0  0  0  0  0  0
    4.7147    0.1236   -6.8384 N   0  0  0  0  0  0  0  0  0  0  0  0
    0.2817    3.5151    2.1985 C   0  0  0  0  0  0  0  0  0  0  0  0
   -3.1094    0.7959   11.2774 C   0  0  0  0  0  0  0  0  0  0  0  0
   -0.8580    1.0082    2.0824 N   0  0  0  0  0  0  0  0  0  0  0  0
   -3.3103   -0.7200    9.4020 C   0  0  0  0  0  0  0  0  0  0  0  0
    6.6335    0.6620   -2.3182 N   0  0  0  0  0  0  0  0  0  0  0  0
   -2.5133    1.7634   10.4932 C   0  0  0  0  0  0  0  0  0  0  0  0
   -1.1155    4.1379    8.8367 H   0  0  0  0  0  0  0  0  0  0  0  0
   -0.8135    1.6522    3.2342 C   0  0  0  0  0  0  0  0  0  0  0  0
   -2.8381    0.5549    4.0786 C   0  0  0  0  0  0  0  0  0  0  0  0
    3.5012   -0.4772   -7.0580 C   0  0  0  0  0  0  0  0  0  0  0  0
    6.6616    1.1531   -7.2129 C   0  0  0  0  0  0  0  0  0  0  0  0
   -1.3819   -3.8077   -2.9231 C   0  0  0  0  0  0  0  0  0  0  0  0
   -1.8076    1.4022    6.9117 C   0  0  0  0  0  0  0  0  0  0  0  0
    5.3053    0.5836   -8.8472 H   0  0  0  0  0  0  0  0  0  0  0  0
    5.5630    0.6303   -7.8104 C   0  0  0  0  0  0  0  0  0  0  0  0
    0.3079    0.0848   -2.3928 C   0  0  0  0  0  0  0  0  0  0  0  0
    1.0625   -0.1722   -3.5679 C   0  0  0  0  0  0  0  0  0  0  0  0
   -3.2759    0.9856   12.3275 H   0  0  0  0  0  0  0  0  0  0  0  0
   -1.1725    3.4975    7.9708 C   0  0  0  0  0  0  0  0  0  0  0  0
    2.9294   -0.9741   -8.1937 C   0  0  0  0  0  0  0  0  0  0  0  0
   -0.7605    3.0792    5.6276 C   0  0  0  0  0  0  0  0  0  0  0  0
    1.6497   -1.4524   -7.8091 C   0  0  0  0  0  0  0  0  0  0  0  0
   -3.0329   -5.4286   -2.2831 C   0  0  0  0  0  0  0  0  0  0  0  0
   -0.2425    4.8830    6.6249 H   0  0  0  0  0  0  0  0  0  0  0  0
    6.3349    0.7106   -3.6767 C   0  0  0  0  0  0  0  0  0  0  0  0
   -0.5397   -0.3448    4.6264 C   0  0  0  0  0  0  0  0  0  0  0  0
    0.2378    2.8231    1.0071 C   0  0  0  0  0  0  0  0  0  0  0  0
   -3.6155   -1.6697    8.9874 H   0  0  0  0  0  0  0  0  0  0  0  0
    3.3560   -1.0051   -9.1737 H   0  0  0  0  0  0  0  0  0  0  0  0
    1.5429   -1.2103   -6.4705 C   0  0  0  0  0  0  0  0  0  0  0  0
    0.5229    0.7996   -1.2162 C   0  0  0  0  0  0  0  0  0  0  0  0
   -1.7302   -4.9601   -2.2478 C   0  0  0  0  0  0  0  0  0  0  0  0
   -3.3027   -6.3282   -1.7523 H   0  0  0  0  0  0  0  0  0  0  0  0
   -3.4230   -1.9931   -5.7743 H   0  0  0  0  0  0  0  0  0  0  0  0
    0.6302    3.2614    0.1029 H   0  0  0  0  0  0  0  0  0  0  0  0
   -1.3882    0.9238    4.4332 C   0  0  0  0  0  0  0  0  0  0  0  0
   -0.9763   -5.4954   -1.6910 H   0  0  0  0  0  0  0  0  0  0  0  0
    0.9179   -1.9097   -8.4414 H   0  0  0  0  0  0  0  0  0  0  0  0
   -1.6526    0.1449   -0.4221 N   0  0  0  0  0  0  0  0  0  0  0  0
    5.8147    0.6379   -1.7296 H   0  0  0  0  0  0  0  0  0  0  0  0
    1.4541    1.3145   -1.0384 H   0  0  0  0  0  0  0  0  0  0  0  0
   -2.7172   -1.3235   -5.3067 C   0  0  0  0  0  0  0  0  0  0  0  0
   -0.4944    0.8003   -0.2697 C   0  0  0  0  0  0  0  0  0  0  0  0
   -0.2715   -1.9844   -6.0400 H   0  0  0  0  0  0  0  0  0  0  0  0
   -3.2712   -0.1455    4.7869 H   0  0  0  0  0  0  0  0  0  0  0  0
    4.3611   -0.3209   -3.7564 H   0  0  0  0  0  0  0  0  0  0  0  0
    8.1016    1.6927   -4.6144 H   0  0  0  0  0  0  0  0  0  0  0  0
    5.3208    0.3442   -5.6198 C   0  0  0  0  0  0  0  0  0  0  0  0
   -2.7108    0.2482    8.6120 C   0  0  0  0  0  0  0  0  0  0  0  0
   -0.3587    1.5600    0.9859 C   0  0  0  0  0  0  0  0  0  0  0  0
   -0.9179   -0.9706    5.4299 H   0  0  0  0  0  0  0  0  0  0  0  0
   -1.8807   -0.5290   -1.5276 C   0  0  0  0  0  0  0  0  0  0  0  0
    7.2938    1.3665   -2.0234 H   0  0  0  0  0  0  0  0  0  0  0  0
    2.6625   -0.6187   -5.9967 O   0  0  0  0  0  0  0  0  0  0  0  0
   -1.9689   -1.9237   -4.3053 N   0  0  0  0  0  0  0  0  0  0  0  0
    0.5143   -1.5205   -5.6081 N   0  0  0  0  0  0  0  0  0  0  0  0
   -0.9376   -0.5756   -2.5391 C   0  0  0  0  0  0  0  0  0  0  0  0
   -3.4575    1.4496    4.0582 H   0  0  0  0  0  0  0  0  0  0  0  0
   -1.8592    0.6077   -5.2886 H   0  0  0  0  0  0  0  0  0  0  0  0
    0.7130    4.5018    2.2707 H   0  0  0  0  0  0  0  0  0  0  0  0
   -2.5565   -0.0778   -5.7376 C   0  0  0  0  0  0  0  0  0  0  0  0
   -0.9264   -1.2052   -3.7621 N   0  0  0  0  0  0  0  0  0  0  0  0
   -0.2217    3.6345    4.4966 O   0  0  0  0  0  0  0  0  0  0  0  0
   -3.9664   -1.1622   11.3808 H   0  0  0  0  0  0  0  0  0  0  0  0
    6.5145    0.9768   -5.8613 N   0  0  0  0  0  0  0  0  0  0  0  0
    7.5162    1.6250   -7.6518 H   0  0  0  0  0  0  0  0  0  0  0  0
   -3.9893   -4.7259   -2.9948 C   0  0  0  0  0  0  0  0  0  0  0  0
   -0.6904    3.9106    6.7529 C   0  0  0  0  0  0  0  0  0  0  0  0
   -2.3095    1.4931    9.1461 C   0  0  0  0  0  0  0  0  0  0  0  0
   -1.7335    2.2305    8.0583 C   0  0  0  0  0  0  0  0  0  0  0  0
   -3.6559   -3.5644   -3.6652 C   0  0  0  0  0  0  0  0  0  0  0  0
   -1.3227    1.8068    5.6647 C   0  0  0  0  0  0  0  0  0  0  0  0
   -2.5906   -0.5555    6.6668 H   0  0  0  0  0  0  0  0  0  0  0  0
   -3.1412    0.2944   -6.5563 H   0  0  0  0  0  0  0  0  0  0  0  0
   -0.3631   -3.4520   -2.8890 H   0  0  0  0  0  0  0  0  0  0  0  0
    5.1685    0.1598   -4.2668 C   0  0  0  0  0  0  0  0  0  0  0  0
    2.0443    0.1878   -3.7911 H   0  0  0  0  0  0  0  0  0  0  0  0
   -2.8444    0.1038    3.0895 H   0  0  0  0  0  0  0  0  0  0  0  0
    7.1451    1.2162   -4.6733 C   0  0  0  0  0  0  0  0  0  0  0  0
   -3.5026   -0.4277   10.7389 C   0  0  0  0  0  0  0  0  0  0  0  0
  1 78  1  0  0  0  0
  2 28  4  0  0  0  0
  2 67  1  0  0  0  0
  2 73  4  0  0  0  0
  3 82  1  0  0  0  0
  4 24  4  0  0  0  0
  4 60  4  0  0  0  0
  4 84  1  0  0  0  0
  5 17  1  0  0  0  0
  6 23  4  0  0  0  0
  6 66  1  0  0  0  0
  6 82  4  0  0  0  0
  7 63  1  0  0  0  0
  8 37  1  0  0  0  0
  9 12  4  0  0  0  0
  9 19  4  0  0  0  0
  9 74  1  0  0  0  0
 10 37  1  0  0  0  0
 11 21  1  0  0  0  0
 11 26  4  0  0  0  0
 11 59  4  0  0  0  0
 12 38  4  0  0  0  0
 12 71  1  0  0  0  0
 13 17  4  0  0  0  0
 13 29  1  0  0  0  0
 13 91  4  0  0  0  0
 14 19  4  0  0  0  0
 14 61  4  0  0  0  0
 15 39  1  0  0  0  0
 15 60  4  0  0  0  0
 15 91  4  0  0  0  0
 16 36  1  0  0  0  0
 16 51  1  0  0  0  0
 16 64  1  0  0  0  0
 17 80  4  0  0  0  0
 18 30  1  0  0  0  0
 19 47  1  0  0  0  0
 20 47  1  0  0  0  0
 20 56  1  0  0  0  0
 20 69  1  0  0  0  0
 20 89  1  0  0  0  0
 21 31  4  0  0  0  0
 21 65  4  0  0  0  0
 22 26  4  0  0  0  0
 22 76  4  0  0  0  0
 22 77  1  0  0  0  0
 23 43  4  0  0  0  0
 23 86  1  0  0  0  0
 24 81  4  0  0  0  0
 24 83  4  0  0  0  0
 25 26  1  0  0  0  0
 27 28  4  0  0  0  0
 27 42  4  0  0  0  0
 27 68  4  0  0  0  0
 28 88  1  0  0  0  0
 30 79  4  0  0  0  0
 30 81  4  0  0  0  0
 31 33  4  0  0  0  0
 31 40  1  0  0  0  0
 32 74  1  0  0  0  0
 32 79  4  0  0  0  0
 32 83  4  0  0  0  0
 33 41  4  0  0  0  0
 33 49  1  0  0  0  0
 34 43  4  0  0  0  0
 34 44  1  0  0  0  0
 34 78  4  0  0  0  0
 35 79  1  0  0  0  0
 36 87  4  0  0  0  0
 36 90  4  0  0  0  0
 37 47  1  0  0  0  0
 37 62  1  0  0  0  0
 38 46  1  0  0  0  0
 38 61  4  0  0  0  0
 41 65  4  0  0  0  0
 41 67  1  0  0  0  0
 42 52  1  0  0  0  0
 42 54  4  0  0  0  0
 43 48  1  0  0  0  0
 45 53  1  0  0  0  0
 47 83  1  0  0  0  0
 50 54  4  0  0  0  0
 50 63  4  0  0  0  0
 53 66  1  0  0  0  0
 53 72  2  0  0  0  0
 54 61  1  0  0  0  0
 55 67  1  0  0  0  0
 57 87  1  0  0  0  0
 58 90  1  0  0  0  0
 59 76  4  0  0  0  0
 59 87  4  0  0  0  0
 60 80  4  0  0  0  0
 63 68  4  0  0  0  0
 66 73  1  0  0  0  0
 68 73  4  0  0  0  0
 70 72  1  0  0  0  0
 72 85  1  0  0  0  0
 75 91  1  0  0  0  0
 76 90  4  0  0  0  0
 78 82  4  0  0  0  0
 80 81  4  0  0  0  0
M  END
$$$$

 Bond Distances (Angstroems)
 ---------------------------
H1-C78=1.0798        C2-C28=1.3710        C2-N67=1.3718        C2-N73=1.3808        H3-C82=1.0787        N4-C24=1.3728        
N4-C60=1.3708        N4-H84=1.0044        H5-C17=1.0795        C6-C23=1.3946        C6-N66=1.3994        C6-C82=1.3934        
H7-C63=1.0825        H8-C37=1.0888        C9-C12=1.3942        C9-C19=1.3933        C9-O74=1.3564        H10-C37=1.0869       
N11-C21=1.3718       N11-C26=1.3860       N11-C59=1.3787       C12-C9=1.3942        C12-C38=1.3785       C12-H71=1.0793       
C13-C17=1.3807       C13-H29=1.0800       C13-C91=1.3935       N14-C19=1.3204       N14-C61=1.3251       C15-H39=1.0802       
C15-C60=1.3860       C15-C91=1.3819       N16-C36=1.3917       N16-H51=1.0087       N16-H64=1.0095       C17-H5=1.0795        
C17-C13=1.3807       C17-C80=1.3890       H18-C30=1.0785       C19-C9=1.3933        C19-N14=1.3204       C19-C47=1.5161       
C20-C47=1.5376       C20-H56=1.0861       C20-H69=1.0884       C20-H89=1.0871       C21-N11=1.3718       C21-C31=1.3652       
C21-O65=1.3600       C22-C26=1.3555       C22-N76=1.3709       C22-H77=1.0703       C23-C6=1.3946        C23-C43=1.3804       
C23-H86=1.0797       C24-N4=1.3728        C24-C81=1.4163       C24-C83=1.3978       H25-C26=1.0693       C26-N11=1.3860       
C26-C22=1.3555       C26-H25=1.0693       C27-C28=1.4200       C27-C42=1.3934       C27-C68=1.4174       C28-C2=1.3710        
C28-C27=1.4200       C28-H88=1.0693       H29-C13=1.0800       C30-H18=1.0785       C30-C79=1.3734       C30-C81=1.3884       
C31-C21=1.3652       C31-C33=1.4193       C31-H40=1.0693       C32-O74=1.3704       C32-C79=1.4009       C32-C83=1.3915       
C33-C31=1.4193       C33-C41=1.3645       C33-H49=1.0697       C34-C43=1.3848       C34-H44=1.0788       C34-C78=1.3838       
H35-C79=1.0782       C36-N16=1.3917       C36-C87=1.4184       C36-C90=1.3804       C37-H8=1.0888        C37-H10=1.0869       
C37-C47=1.5384       C37-H62=1.0864       C38-C12=1.3785       C38-H46=1.0787       C38-C61=1.3970       H39-C15=1.0802       
H40-C31=1.0693       C41-C33=1.3645       C41-O65=1.3520       C41-N67=1.3777       C42-C27=1.3934       C42-H52=1.0788       
C42-C54=1.3895       C43-C23=1.3804       C43-C34=1.3848       C43-H48=1.0792       H44-C34=1.0788       H45-C53=1.0793       
H46-C38=1.0787       C47-C19=1.5161       C47-C20=1.5376       C47-C37=1.5384       C47-C83=1.5168       H48-C43=1.0792       
H49-C33=1.0697       N50-C54=1.3395       N50-C63=1.3146       H51-N16=1.0087       H52-C42=1.0788       C53-H45=1.0793       
C53-N66=1.3868       C53-C72=1.3279       C54-C42=1.3895       C54-N50=1.3395       C54-C61=1.4738       H55-N67=1.0096       
H56-C20=1.0861       H57-C87=1.0694       H58-C90=1.0702       C59-N11=1.3787       C59-N76=1.3724       C59-C87=1.3740       
C60-N4=1.3708        C60-C15=1.3860       C60-C80=1.4128       C61-N14=1.3251       C61-C38=1.3970       C61-C54=1.4738       
H62-C37=1.0864       C63-H7=1.0825        C63-N50=1.3146       C63-C68=1.3837       H64-N16=1.0095       O65-C21=1.3600       
O65-C41=1.3520       N66-C6=1.3994        N66-C53=1.3868       N66-N73=1.3777       N67-C2=1.3718        N67-C41=1.3777       
N67-H55=1.0096       C68-C27=1.4174       C68-C63=1.3837       C68-N73=1.3755       H69-C20=1.0884       H70-C72=1.0761       
H71-C12=1.0793       C72-C53=1.3279       C72-H70=1.0761       C72-H85=1.0727       N73-C2=1.3808        N73-N66=1.3777       
N73-C68=1.3755       O74-C9=1.3564        O74-C32=1.3704       H75-C91=1.0801       N76-C22=1.3709       N76-C59=1.3724       
N76-C90=1.3662       H77-C22=1.0703       C78-H1=1.0798        C78-C34=1.3838       C78-C82=1.3820       C79-C30=1.3734       
C79-C32=1.4009       C79-H35=1.0782       C80-C17=1.3890       C80-C60=1.4128       C80-C81=1.4349       C81-C24=1.4163       
C81-C30=1.3884       C81-C80=1.4349       C82-H3=1.0787        C82-C6=1.3934        C82-C78=1.3820       C83-C24=1.3978       
C83-C32=1.3915       C83-C47=1.5168       H84-N4=1.0044        H85-C72=1.0727       H86-C23=1.0797       C87-C36=1.4184       
C87-H57=1.0694       C87-C59=1.3740       H88-C28=1.0693       H89-C20=1.0871       C90-C36=1.3804       C90-H58=1.0702       
C90-N76=1.3662       C91-C13=1.3935       C91-C15=1.3819       C91-H75=1.0801       
 C  H  Rav=1.0784 sigma=0.0059  Rmin=1.0693  Rmax=1.0888    31
 C  C  Rav=1.4046 sigma=0.0459  Rmin=1.3279  Rmax=1.5384    42
 N  H  Rav=1.0080 sigma=0.0022  Rmin=1.0044  Rmax=1.0096     4
 N  C  Rav=1.3670 sigma=0.0235  Rmin=1.3146  Rmax=1.3994    19
 N  N  Rav=1.3777 sigma=0.0000  Rmin=1.3777  Rmax=1.3777     1
 O  C  Rav=1.3597 sigma=0.0068  Rmin=1.3520  Rmax=1.3704     4

 selected bond angles (degree)
 --------------------
N67-C2-C28=132.05              N73-C2-C28=109.66              N73-C2-N67=118.27              C60-N4-C24=109.80              
H84-N4-C24=125.78              H84-N4-C60=124.42              N66-C6-C23=119.15              C82-C6-C23=119.17              
C82-C6-N66=121.67              C19-C9-C12=118.56              O74-C9-C12=117.83              O74-C9-C19=123.61              

 selected dihedral angles (degree)
 ---------------------------------

           -------------------------------------------------
          |                Final Singlepoint                |
           -------------------------------------------------

          ...................................................
          :                      SETUP                      :
          :.................................................:
          :  # basis functions                 259          :
          :  # atomic orbitals                 259          :
          :  # shells                          147          :
          :  # electrons                       272          :
          :  max. iterations                   250          :
          :  Hamiltonian                  GFN2-xTB          :
          :  restarted?                      false          :
          :  GBSA solvation                  false          :
          :  PC potential                    false          :
          :  electronic temp.          300.0000000     K    :
          :  accuracy                    1.0000000          :
          :  -> integral cutoff          0.2500000E+02      :
          :  -> integral neglect         0.1000000E-07      :
          :  -> SCF convergence          0.1000000E-05 Eh   :
          :  -> wf. convergence          0.1000000E-03 e    :
          :  Broyden damping             0.4000000          :
          :  net charge                          0          :
          :  unpaired electrons                  0          :
          ...................................................

 iter      E             dE          RMSdq      gap      omega  full diag
   1   -151.1575768 -0.151158E+03  0.426E-05    2.28       0.0  T
   2   -151.1575768 -0.438831E-10  0.288E-05    2.28     364.5  T
   3   -151.1575768 -0.412115E-10  0.160E-05    2.28     654.3  T

   *** convergence criteria satisfied after 3 iterations ***

         #    Occupation            Energy/Eh            Energy/eV
      -------------------------------------------------------------
         1        2.0000           -0.7513337             -20.4448
       ...           ...                  ...                  ...
       130        2.0000           -0.3616186              -9.8401
       131        2.0000           -0.3607367              -9.8161
       132        2.0000           -0.3559666              -9.6863
       133        2.0000           -0.3553417              -9.6693
       134        2.0000           -0.3516950              -9.5701
       135        2.0000           -0.3348972              -9.1130
       136        2.0000           -0.3312692              -9.0143 (HOMO)
       137                         -0.2473073              -6.7296 (LUMO)
       138                         -0.2422353              -6.5916
       139                         -0.2360683              -6.4237
       140                         -0.2357106              -6.4140
       141                         -0.2325031              -6.3267
       ...                                ...                  ...
       259                          0.7509943              20.4356
      -------------------------------------------------------------
                  HL-Gap            0.0839619 Eh            2.2847 eV
             Fermi-level           -0.2892882 Eh           -7.8719 eV

 SCC (total)                   0 d,  0 h,  0 min,  0.111 sec
 SCC setup                      ...        0 min,  0.001 sec (  0.505%)
 Dispersion                     ...        0 min,  0.001 sec (  0.934%)
 classical contributions        ...        0 min,  0.000 sec (  0.289%)
 integral evaluation            ...        0 min,  0.017 sec ( 14.933%)
 iterations                     ...        0 min,  0.024 sec ( 21.586%)
 molecular gradient             ...        0 min,  0.068 sec ( 60.974%)
 printout                       ...        0 min,  0.001 sec (  0.767%)

         :::::::::::::::::::::::::::::::::::::::::::::::::::::
         ::                     SUMMARY                     ::
         :::::::::::::::::::::::::::::::::::::::::::::::::::::
         :: total energy            -148.721001681223 Eh    ::
         :: gradient norm              0.001860783810 Eh/a0 ::
         :: HOMO-LUMO gap              2.284718533919 eV    ::
         ::.................................................::
         :: SCC energy              -151.157730123634 Eh    ::
         :: -> isotropic ES            0.066580935415 Eh    ::
         :: -> anisotropic ES          0.021607645565 Eh    ::
         :: -> anisotropic XC          0.074587652895 Eh    ::
         :: -> dispersion             -0.123621616888 Eh    ::
         :: repulsion energy           2.436728442411 Eh    ::
         :: add. restraining           0.000000000000 Eh    ::
         :: total charge              -0.000000000000 e     ::
         :::::::::::::::::::::::::::::::::::::::::::::::::::::

           -------------------------------------------------
          |                Property Printout                |
           -------------------------------------------------

    * Orbital Energies and Occupations

         #    Occupation            Energy/Eh            Energy/eV
      -------------------------------------------------------------
         1        2.0000           -0.7513337             -20.4448
       ...           ...                  ...                  ...
       124        2.0000           -0.4084455             -11.1144
       125        2.0000           -0.4005197             -10.8987
       126        2.0000           -0.3978221             -10.8253
       127        2.0000           -0.3905404             -10.6271
       128        2.0000           -0.3793600             -10.3229
       129        2.0000           -0.3669599              -9.9855
       130        2.0000           -0.3616186              -9.8401
       131        2.0000           -0.3607367              -9.8161
       132        2.0000           -0.3559666              -9.6863
       133        2.0000           -0.3553417              -9.6693
       134        2.0000           -0.3516950              -9.5701
       135        2.0000           -0.3348972              -9.1130
       136        2.0000           -0.3312692              -9.0143 (HOMO)
       137                         -0.2473073              -6.7296 (LUMO)
       138                         -0.2422353              -6.5916
       139                         -0.2360683              -6.4237
       140                         -0.2357106              -6.4140
       141                         -0.2325031              -6.3267
       142                         -0.2281954              -6.2095
       143                         -0.2208764              -6.0104
       144                         -0.2177188              -5.9244
       145                         -0.1974568              -5.3731
       146                         -0.1902297              -5.1764
       147                         -0.1868486              -5.0844
       ...                                ...                  ...
       259                          0.7509943              20.4356
      -------------------------------------------------------------
                  HL-Gap            0.0839619 Eh            2.2847 eV
             Fermi-level           -0.2892882 Eh           -7.8719 eV

     #   Z          covCN         q      C6AA      α(0)
     1   1 H        0.926     0.036     2.508     2.476
     2   6 C        3.006     0.103    25.702     8.316
     3   1 H        0.926     0.035     2.518     2.481
     4   7 N        2.761    -0.120    23.603     7.216
     5   1 H        0.926     0.030     2.585     2.514
     6   6 C        2.918     0.053    26.805     8.490
     7   1 H        0.925     0.029     2.607     2.525
     8   1 H        0.925     0.032     2.560     2.502
     9   6 C        2.877     0.123    25.290     8.244
    10   1 H        0.925     0.060     2.199     2.319
    11   7 N        2.818    -0.027    21.761     6.928
    12   6 C        2.924    -0.042    29.053     8.839
    13   6 C        2.920    -0.042    29.044     8.838
    14   7 N        1.851    -0.223    26.720     7.661
    15   6 C        2.910    -0.055    29.378     8.888
    16   7 N        2.633    -0.296    27.624     7.806
    17   6 C        2.912    -0.034    28.836     8.806
    18   1 H        0.926     0.039     2.459     2.452
    19   6 C        2.963     0.066    26.512     8.446
    20   6 C        3.762    -0.109    22.638     6.782
    21   6 C        3.051     0.157    24.565     8.129
    22   6 C        2.977    -0.023    28.574     8.768
    23   6 C        2.924    -0.048    29.203     8.862
    24   6 C        3.066     0.050    26.815     8.491
    25   1 H        0.927     0.047     2.356     2.400
    26   6 C        3.020    -0.026    28.637     8.778
    27   6 C        3.114     0.001    27.839     8.643
    28   6 C        2.998    -0.106    30.660     9.083
    29   1 H        0.926     0.027     2.632     2.537
    30   6 C        2.912    -0.036    28.892     8.814
    31   6 C        3.012    -0.091    30.273     9.025
    32   6 C        2.890     0.127    25.212     8.232
    33   6 C        3.014    -0.102    30.548     9.066
    34   6 C        2.919    -0.037    28.910     8.817
    35   1 H        0.926     0.047     2.363     2.404
    36   6 C        3.057     0.051    26.808     8.491
    37   6 C        3.762    -0.106    22.561     6.771
    38   6 C        2.918    -0.050    29.234     8.866
    39   1 H        0.926     0.023     2.690     2.565
    40   1 H        0.927     0.041     2.434     2.440
    41   6 C        3.044     0.167    24.371     8.097
    42   6 C        2.913    -0.057    29.417     8.894
    43   6 C        2.921    -0.026    28.652     8.778
    44   1 H        0.926     0.035     2.520     2.482
    45   1 H        0.926     0.046     2.364     2.404
    46   1 H        0.926     0.038     2.470     2.458
    47   6 C        3.910     0.025    20.091     6.371
    48   1 H        0.926     0.037     2.488     2.467
    49   1 H        0.927     0.036     2.505     2.475
    50   7 N        1.847    -0.229    26.849     7.680
    51   1 H        0.860     0.155     1.366     1.831
    52   1 H        0.926     0.031     2.573     2.508
    53   6 C        2.833     0.005    27.904     8.656
    54   6 C        2.959     0.078    26.256     8.405
    55   1 H        0.860     0.184     1.189     1.708
    56   1 H        0.925     0.032     2.563     2.503
    57   1 H        0.927     0.026     2.643     2.542
    58   1 H        0.927     0.023     2.695     2.567
    59   6 C        3.253     0.067    25.491     8.169
    60   6 C        3.071     0.053    26.740     8.479
    61   6 C        2.958     0.082    26.176     8.392
    62   1 H        0.925     0.033     2.539     2.492
    63   6 C        2.885     0.043    27.035     8.524
    64   1 H        0.860     0.149     1.409     1.860
    65   8 O        1.726    -0.208    17.455     5.641
    66   7 N        2.817    -0.019    21.610     6.904
    67   7 N        2.687    -0.158    24.409     7.338
    68   6 C        3.065     0.013    27.648     8.622
    69   1 H        0.925     0.034     2.530     2.487
    70   1 H        0.926     0.038     2.481     2.463
    71   1 H        0.926     0.047     2.354     2.399
    72   6 C        2.838    -0.125    31.177     9.150
    73   7 N        2.913     0.009    21.088     6.820
    74   8 O        1.710    -0.244    18.046     5.736
    75   1 H        0.926     0.028     2.615     2.529
    76   7 N        2.962     0.002    21.229     6.843
    77   1 H        0.927     0.048     2.341     2.393
    78   6 C        2.921    -0.027    28.678     8.782
    79   6 C        2.921    -0.065    29.612     8.924
    80   6 C        3.069    -0.015    28.313     8.725
    81   6 C        3.081    -0.025    28.536     8.757
    82   6 C        2.921    -0.051    29.278     8.873
    83   6 C        2.963    -0.047    29.154     8.856
    84   1 H        0.860     0.163     1.319     1.799
    85   1 H        0.926     0.040     2.447     2.446
    86   1 H        0.926     0.034     2.530     2.487
    87   6 C        3.007    -0.119    31.000     9.133
    88   1 H        0.927     0.051     2.302     2.373
    89   1 H        0.925     0.070     2.090     2.261
    90   6 C        2.995    -0.078    29.933     8.975
    91   6 C        2.925    -0.034    28.845     8.808

 Mol. C6AA /au·bohr⁶  :     116948.724390
 Mol. C8AA /au·bohr⁸  :    2891697.824392
 Mol. α(0) /au        :        544.979328


Wiberg/Mayer (AO) data.
largest (>0.10) Wiberg bond orders for each atom

 ---------------------------------------------------------------------------
     #   Z sym  total        # sym  WBO       # sym  WBO       # sym  WBO
 ---------------------------------------------------------------------------
     1   1 H    0.998 --    78 C    0.971
     2   6 C    3.935 --    28 C    1.485    73 N    1.129    67 N    1.121
     3   1 H    0.999 --    82 C    0.966
     4   7 N    3.513 --    24 C    1.162    60 C    1.155    84 H    0.932
     5   1 H    0.999 --    17 C    0.969
     6   6 C    3.962 --    82 C    1.365    23 C    1.364    66 N    1.061
     7   1 H    0.998 --    63 C    0.960
     8   1 H    0.999 --    37 C    0.987
     9   6 C    3.926 --    12 C    1.353    19 C    1.330    74 O    1.051
    10   1 H    0.995 --    37 C    0.981
    11   7 N    3.598 --    26 C    1.124    21 C    1.096    59 C    1.094
    12   6 C    3.984 --    38 C    1.475     9 C    1.353    71 H    0.967
    13   6 C    3.984 --    17 C    1.474    91 C    1.397    29 H    0.972
    14   7 N    3.069 --    19 C    1.429    61 C    1.396
    15   6 C    3.984 --    91 C    1.468    60 C    1.357    39 H    0.969
                            17 C    0.107
    16   7 N    3.163 --    36 C    1.108    64 H    0.960    51 H    0.958
    17   6 C    3.980 --    13 C    1.474    80 C    1.364     5 H    0.969
                            15 C    0.107
    18   1 H    0.997 --    30 C    0.968
    19   6 C    3.978 --    14 N    1.429     9 C    1.330    47 C    0.977
                            38 C    0.102
    20   6 C    3.992 --    69 H    0.987    89 H    0.979    56 H    0.978
                            47 C    0.977
    21   6 C    3.884 --    31 C    1.518    11 N    1.096    65 O    1.066
    22   6 C    3.935 --    26 C    1.636    76 N    1.143    77 H    0.969
    23   6 C    3.989 --    43 C    1.458     6 C    1.364    86 H    0.968
                            78 C    0.107
    24   6 C    3.961 --    83 C    1.326    81 C    1.261     4 N    1.162
    25   1 H    0.997 --    26 C    0.969
    26   6 C    3.922 --    22 C    1.636    11 N    1.124    25 H    0.969
    27   6 C    3.983 --    42 C    1.339    28 C    1.235    68 C    1.227
    28   6 C    3.946 --     2 C    1.485    27 C    1.235    88 H    0.966
    29   1 H    0.999 --    13 C    0.972
    30   6 C    3.981 --    79 C    1.494    81 C    1.351    18 H    0.968
    31   6 C    3.959 --    21 C    1.518    33 C    1.269    40 H    0.974
    32   6 C    3.905 --    83 C    1.389    79 C    1.323    74 O    1.024
    33   6 C    3.952 --    41 C    1.516    31 C    1.269    49 H    0.975
    34   6 C    3.978 --    78 C    1.434    43 C    1.429    44 H    0.971
    35   1 H    0.997 --    79 C    0.968
    36   6 C    3.964 --    90 C    1.463    87 C    1.273    16 N    1.108
    37   6 C    3.994 --     8 H    0.987    10 H    0.981    62 H    0.979
                            47 C    0.974
    38   6 C    3.985 --    12 C    1.475    61 C    1.356    46 H    0.968
                            19 C    0.102
    39   1 H    0.999 --    15 C    0.969
    40   1 H    0.998 --    31 C    0.974
    41   6 C    3.884 --    33 C    1.516    67 N    1.100    65 O    1.085
    42   6 C    3.978 --    54 C    1.426    27 C    1.339    52 H    0.967
    43   6 C    3.992 --    23 C    1.458    34 C    1.429    48 H    0.971
                            82 C    0.106
    44   1 H    0.999 --    34 C    0.971
    45   1 H    0.997 --    53 C    0.955
    46   1 H    0.997 --    38 C    0.968
    47   6 C    3.990 --    83 C    0.985    20 C    0.977    19 C    0.977
                            37 C    0.974
    48   1 H    0.998 --    43 C    0.971
    49   1 H    0.998 --    33 C    0.975
    50   7 N    3.048 --    63 C    1.469    54 C    1.343
    51   1 H    0.975 --    16 N    0.958
    52   1 H    0.998 --    42 C    0.967
    53   6 C    3.963 --    72 C    1.846    66 N    1.099    45 H    0.955
    54   6 C    3.979 --    42 C    1.426    50 N    1.343    61 C    1.031
    55   1 H    0.965 --    67 N    0.929
    56   1 H    0.998 --    20 C    0.978
    57   1 H    0.999 --    87 C    0.971
    58   1 H    0.999 --    90 C    0.972
    59   6 C    3.909 --    87 C    1.431    76 N    1.146    11 N    1.094
    60   6 C    3.959 --    15 C    1.357    80 C    1.258     4 N    1.155
    61   6 C    3.974 --    14 N    1.396    38 C    1.356    54 C    1.031
    62   1 H    0.998 --    37 C    0.979
    63   6 C    3.981 --    50 N    1.469    68 C    1.358     7 H    0.960
    64   1 H    0.977 --    16 N    0.960
    65   8 O    2.386 --    41 C    1.085    21 C    1.066
    66   7 N    3.458 --    53 C    1.099     6 C    1.061    73 N    0.996
                            72 C    0.109
    67   7 N    3.421 --     2 C    1.121    41 C    1.100    55 H    0.929
    68   6 C    3.942 --    63 C    1.358    27 C    1.227    73 N    1.115
    69   1 H    0.999 --    20 C    0.987
    70   1 H    0.998 --    72 C    0.975
    71   1 H    0.997 --    12 C    0.967
    72   6 C    3.968 --    53 C    1.846    85 H    0.977    70 H    0.975
                            66 N    0.109
    73   7 N    3.529 --     2 C    1.129    68 C    1.115    66 N    0.996
    74   8 O    2.319 --     9 C    1.051    32 C    1.024
    75   1 H    0.999 --    91 C    0.972
    76   7 N    3.658 --    90 C    1.151    59 C    1.146    22 C    1.143
    77   1 H    0.997 --    22 C    0.969
    78   6 C    3.992 --    82 C    1.452    34 C    1.434     1 H    0.971
                            23 C    0.107
    79   6 C    3.973 --    30 C    1.494    32 C    1.323    35 H    0.968
    80   6 C    3.985 --    17 C    1.364    60 C    1.258    81 C    1.153
    81   6 C    3.978 --    30 C    1.351    24 C    1.261    80 C    1.153
    82   6 C    3.987 --    78 C    1.452     6 C    1.365     3 H    0.966
                            43 C    0.106
    83   6 C    3.975 --    32 C    1.389    24 C    1.326    47 C    0.985
    84   1 H    0.973 --     4 N    0.932
    85   1 H    0.998 --    72 C    0.977
    86   1 H    0.999 --    23 C    0.968
    87   6 C    3.938 --    59 C    1.431    36 C    1.273    57 H    0.971
    88   1 H    0.997 --    28 C    0.966
    89   1 H    0.994 --    20 C    0.979
    90   6 C    3.872 --    36 C    1.463    76 N    1.151    58 H    0.972
    91   6 C    3.969 --    15 C    1.468    13 C    1.397    75 H    0.972
 ---------------------------------------------------------------------------

Topologies differ in bond orders
Writing corrected topology to xtbtopo.sdf

molecular dipole:
                 x           y           z       tot (Debye)
 q only:       -0.252      -1.149      -1.605
   full:       -0.174      -0.799      -2.278       6.151
molecular quadrupole (traceless):
                xx          xy          yy          xz          yz          zz
 q only:       -5.883      14.855      -6.781       1.592      -1.745      12.665
  q+dip:      -12.003      30.425      -3.265       5.141      -4.285      15.267
   full:       -9.506      23.764      -3.524       6.430      -4.776      13.030

           -------------------------------------------------
          |                Geometry Summary                 |
           -------------------------------------------------

      molecular mass/u    :      733.8201805
   center of mass at/Å    :        0.1269686       0.1135509      -0.1245559
  moments of inertia/u·Å² :        0.6943842E+04   0.2798494E+05   0.3285051E+05
rotational constants/cm⁻¹ :        0.2427709E-02   0.6023823E-03   0.5131619E-03

 * 98 selected distances

     #   Z          #   Z                                           value/Å
     9   6 C       12   6 C                                       1.3941636
     5   1 H       17   6 C                                       1.0794946
    13   6 C       17   6 C                                       1.3806838
     9   6 C       19   6 C                                       1.3932784
    14   7 N       19   6 C                                       1.3203910
    11   7 N       21   6 C                                       1.3718100
     6   6 C       23   6 C                                       1.3945718
     4   7 N       24   6 C                                       1.3727732
    11   7 N       26   6 C                                       1.3860287
    22   6 C       26   6 C                                       1.3555320
    25   1 H       26   6 C                                       1.0693375
     2   6 C       28   6 C                                       1.3709648
    27   6 C       28   6 C                                       1.4200497
    13   6 C       29   1 H                                       1.0799584
    18   1 H       30   6 C                                       1.0784978
    21   6 C       31   6 C                                       1.3651654
    31   6 C       33   6 C                                       1.4193301
    16   7 N       36   6 C                                       1.3917195
     8   1 H       37   6 C                                       1.0887635
    10   1 H       37   6 C                                       1.0868989
    12   6 C       38   6 C                                       1.3784663
    15   6 C       39   1 H                                       1.0802227
    31   6 C       40   1 H                                       1.0692655
    33   6 C       41   6 C                                       1.3645387
    27   6 C       42   6 C                                       1.3933687
    23   6 C       43   6 C                                       1.3803711
    34   6 C       43   6 C                                       1.3848153
    34   6 C       44   1 H                                       1.0787835
    38   6 C       46   1 H                                       1.0787365
    20   6 C       47   6 C                                       1.5375578
    37   6 C       47   6 C                                       1.5384457 (max)
    43   6 C       48   1 H                                       1.0792494
    33   6 C       49   1 H                                       1.0697483
    16   7 N       51   1 H                                       1.0086775
    42   6 C       52   1 H                                       1.0788301
    45   1 H       53   6 C                                       1.0793488
    42   6 C       54   6 C                                       1.3895219
    50   7 N       54   6 C                                       1.3395133
    20   6 C       56   1 H                                       1.0861432
    11   7 N       59   6 C                                       1.3787309
     4   7 N       60   6 C                                       1.3708322
    15   6 C       60   6 C                                       1.3860333
    14   7 N       61   6 C                                       1.3251210
    38   6 C       61   6 C                                       1.3970459
    37   6 C       62   1 H                                       1.0863742
     7   1 H       63   6 C                                       1.0825132
    50   7 N       63   6 C                                       1.3145786
    16   7 N       64   1 H                                       1.0095316
    21   6 C       65   8 O                                       1.3600372
    41   6 C       65   8 O                                       1.3520424
     6   6 C       66   7 N                                       1.3994403
    53   6 C       66   7 N                                       1.3867906
     2   6 C       67   7 N                                       1.3718013
    41   6 C       67   7 N                                       1.3776649
    55   1 H       67   7 N                                       1.0095738
    27   6 C       68   6 C                                       1.4173605
    63   6 C       68   6 C                                       1.3837117
    20   6 C       69   1 H                                       1.0883628
    12   6 C       71   1 H                                       1.0793167
    53   6 C       72   6 C                                       1.3278678
    70   1 H       72   6 C                                       1.0760782
     2   6 C       73   7 N                                       1.3807948
    66   7 N       73   7 N                                       1.3777257
    68   6 C       73   7 N                                       1.3755288
     9   6 C       74   8 O                                       1.3563566
    32   6 C       74   8 O                                       1.3703626
    22   6 C       76   7 N                                       1.3709365
    59   6 C       76   7 N                                       1.3724329
    22   6 C       77   1 H                                       1.0703197
     1   1 H       78   6 C                                       1.0797962
    34   6 C       78   6 C                                       1.3838123
    30   6 C       79   6 C                                       1.3733851
    32   6 C       79   6 C                                       1.4009285
    35   1 H       79   6 C                                       1.0782059
    17   6 C       80   6 C                                       1.3890047
    60   6 C       80   6 C                                       1.4128174
    24   6 C       81   6 C                                       1.4163299
    30   6 C       81   6 C                                       1.3884349
    80   6 C       81   6 C                                       1.4348722
     3   1 H       82   6 C                                       1.0786770
     6   6 C       82   6 C                                       1.3934303
    78   6 C       82   6 C                                       1.3819654
    24   6 C       83   6 C                                       1.3978495
    32   6 C       83   6 C                                       1.3915059
     4   7 N       84   1 H                                       1.0043547 (min)
    72   6 C       85   1 H                                       1.0727276
    23   6 C       86   1 H                                       1.0796740
    36   6 C       87   6 C                                       1.4183994
    57   1 H       87   6 C                                       1.0693796
    59   6 C       87   6 C                                       1.3740126
    28   6 C       88   1 H                                       1.0692903
    20   6 C       89   1 H                                       1.0871470
    36   6 C       90   6 C                                       1.3803737
    58   1 H       90   6 C                                       1.0701868
    76   7 N       90   6 C                                       1.3662298
    13   6 C       91   6 C                                       1.3934718
Note: The following floating-point exceptions are signalling: IEEE_UNDERFLOW_FLAG IEEE_DENORMAL
normal termination of xtb
    15   6 C       91   6 C                                       1.3819238
    75   1 H       91   6 C                                       1.0800577

 * 6 distinct bonds (by element types)

   Z      Z             #   av. dist./Å        max./Å        min./Å
   1 H    6 C          31     1.0784318     1.0887635     1.0692655
   6 C    6 C          39     1.3970606     1.5384457     1.3278678
   1 H    7 N           4     1.0080344     1.0095738     1.0043547
   6 C    7 N          19     1.3670062     1.3994403     1.3145786
   7 N    7 N           1     1.3777257     1.3777257     1.3777257
   6 C    8 O           4     1.3596997     1.3703626     1.3520424


optimized geometry written to: xtbopt.sdf


           -------------------------------------------------
          | TOTAL ENERGY             -148.721001681223 Eh   |
          | GRADIENT NORM               0.001860783810 Eh/α |
          | HOMO-LUMO GAP               2.284718533919 eV   |
           -------------------------------------------------

------------------------------------------------------------------------
 * finished run on 2026/08/20 at 06:26:08.450     
------------------------------------------------------------------------
 total:
 * wall-time:     0 d,  0 h,  0 min, 10.051 sec
 *  cpu-time:     0 d,  0 h,  0 min, 10.020 sec
 * ratio c/w:     0.997 speedup
 SCF:
 * wall-time:     0 d,  0 h,  0 min,  0.197 sec
 *  cpu-time:     0 d,  0 h,  0 min,  0.197 sec
 * ratio c/w:     1.000 speedup
 ANC optimizer:
 * wall-time:     0 d,  0 h,  0 min,  9.812 sec
 *  cpu-time:     0 d,  0 h,  0 min,  9.797 sec
 * ratio c/w:     0.998 speedup

